*SPEF "ieee 1481-1999"
*DESIGN "pwm_ctrl"
*DATE "17:02:46 Monday May 04, 2026"
*VENDOR "The OpenROAD Project"
*PROGRAM "OpenROAD"
*VERSION "b16bda7e82721d10566ff7e2b68f1ff0be9f9e38"
*DESIGN_FLOW "NAME_SCOPE LOCAL" "PIN_CAP NONE"
*DIVIDER /
*DELIMITER :
*BUS_DELIMITER []
*T_UNIT 1 NS
*C_UNIT 1 PF
*R_UNIT 1 OHM
*L_UNIT 1 HENRY

*NAME_MAP
*3 clk
*4 duty[0]
*5 duty[1]
*6 duty[2]
*7 duty[3]
*8 duty[4]
*9 duty[5]
*10 duty[6]
*11 duty[7]
*12 pwm_out
*13 rst
*14 _00_
*15 _01_
*16 _02_
*17 _03_
*18 _04_
*19 _05_
*20 _06_
*21 _07_
*22 _08_
*23 _09_
*24 _10_
*25 _11_
*26 _12_
*27 _13_
*28 _14_
*29 _15_
*30 _16_
*31 _17_
*32 _18_
*33 _19_
*34 _20_
*35 _21_
*36 _22_
*37 _23_
*38 _24_
*39 _25_
*40 _26_
*41 _27_
*42 _28_
*43 _29_
*44 _30_
*45 _31_
*46 _32_
*47 _33_
*48 _34_
*49 _35_
*50 _36_
*51 _37_
*52 _38_
*53 _39_
*54 _40_
*55 _41_
*56 _42_
*57 _43_
*58 clknet_0_clk
*59 clknet_1_0__leaf_clk
*60 clknet_1_1__leaf_clk
*61 counter\[0\]
*62 counter\[1\]
*63 counter\[2\]
*64 counter\[3\]
*65 counter\[4\]
*66 counter\[5\]
*67 counter\[6\]
*68 counter\[7\]
*69 net1
*70 net10
*71 net11
*72 net12
*73 net13
*74 net14
*75 net15
*76 net16
*77 net17
*78 net18
*79 net19
*80 net2
*81 net20
*82 net3
*83 net4
*84 net5
*85 net6
*86 net7
*87 net8
*88 net9
*89 FILLER_0_0_12
*90 FILLER_0_0_15
*91 FILLER_0_0_24
*92 FILLER_0_0_27
*93 FILLER_0_0_3
*94 FILLER_0_0_34
*95 FILLER_0_0_37
*96 FILLER_0_0_40
*97 FILLER_0_0_43
*98 FILLER_0_0_46
*99 FILLER_0_0_49
*100 FILLER_0_0_52
*101 FILLER_0_0_55
*102 FILLER_0_0_57
*103 FILLER_0_0_6
*104 FILLER_0_0_60
*105 FILLER_0_0_63
*106 FILLER_0_0_66
*107 FILLER_0_0_69
*108 FILLER_0_0_9
*109 FILLER_0_10_12
*110 FILLER_0_10_22
*111 FILLER_0_10_25
*112 FILLER_0_10_3
*113 FILLER_0_10_37
*114 FILLER_0_10_40
*115 FILLER_0_10_48
*116 FILLER_0_10_51
*117 FILLER_0_10_54
*118 FILLER_0_10_57
*119 FILLER_0_10_6
*120 FILLER_0_10_68
*121 FILLER_0_10_9
*122 FILLER_0_11_29
*123 FILLER_0_11_3
*124 FILLER_0_11_32
*125 FILLER_0_11_35
*126 FILLER_0_11_38
*127 FILLER_0_11_41
*128 FILLER_0_11_44
*129 FILLER_0_11_48
*130 FILLER_0_11_51
*131 FILLER_0_11_54
*132 FILLER_0_11_57
*133 FILLER_0_11_6
*134 FILLER_0_11_60
*135 FILLER_0_11_63
*136 FILLER_0_1_3
*137 FILLER_0_1_46
*138 FILLER_0_1_49
*139 FILLER_0_1_52
*140 FILLER_0_1_55
*141 FILLER_0_1_57
*142 FILLER_0_1_6
*143 FILLER_0_1_60
*144 FILLER_0_1_63
*145 FILLER_0_1_66
*146 FILLER_0_1_9
*147 FILLER_0_2_3
*148 FILLER_0_2_40
*149 FILLER_0_2_6
*150 FILLER_0_3_69
*151 FILLER_0_4_27
*152 FILLER_0_4_3
*153 FILLER_0_4_34
*154 FILLER_0_4_6
*155 FILLER_0_4_9
*156 FILLER_0_5_12
*157 FILLER_0_5_3
*158 FILLER_0_5_41
*159 FILLER_0_5_44
*160 FILLER_0_5_50
*161 FILLER_0_5_53
*162 FILLER_0_5_57
*163 FILLER_0_5_6
*164 FILLER_0_5_60
*165 FILLER_0_5_63
*166 FILLER_0_5_66
*167 FILLER_0_5_9
*168 FILLER_0_6_12
*169 FILLER_0_6_15
*170 FILLER_0_6_21
*171 FILLER_0_6_27
*172 FILLER_0_6_3
*173 FILLER_0_6_38
*174 FILLER_0_6_6
*175 FILLER_0_6_63
*176 FILLER_0_6_66
*177 FILLER_0_6_69
*178 FILLER_0_6_9
*179 FILLER_0_7_40
*180 FILLER_0_7_43
*181 FILLER_0_7_51
*182 FILLER_0_7_65
*183 FILLER_0_7_7
*184 FILLER_0_8_27
*185 FILLER_0_8_3
*186 FILLER_0_8_66
*187 FILLER_0_8_69
*188 FILLER_0_9_3
*189 FILLER_0_9_44
*190 FILLER_0_9_47
*191 FILLER_0_9_55
*192 FILLER_0_9_6
*193 FILLER_0_9_63
*194 FILLER_0_9_9
*195 PHY_EDGE_ROW_0_Left_12
*196 PHY_EDGE_ROW_0_Right_0
*197 PHY_EDGE_ROW_10_Left_22
*198 PHY_EDGE_ROW_10_Right_10
*199 PHY_EDGE_ROW_11_Left_23
*200 PHY_EDGE_ROW_11_Right_11
*201 PHY_EDGE_ROW_1_Left_13
*202 PHY_EDGE_ROW_1_Right_1
*203 PHY_EDGE_ROW_2_Left_14
*204 PHY_EDGE_ROW_2_Right_2
*205 PHY_EDGE_ROW_3_Left_15
*206 PHY_EDGE_ROW_3_Right_3
*207 PHY_EDGE_ROW_4_Left_16
*208 PHY_EDGE_ROW_4_Right_4
*209 PHY_EDGE_ROW_5_Left_17
*210 PHY_EDGE_ROW_5_Right_5
*211 PHY_EDGE_ROW_6_Left_18
*212 PHY_EDGE_ROW_6_Right_6
*213 PHY_EDGE_ROW_7_Left_19
*214 PHY_EDGE_ROW_7_Right_7
*215 PHY_EDGE_ROW_8_Left_20
*216 PHY_EDGE_ROW_8_Right_8
*217 PHY_EDGE_ROW_9_Left_21
*218 PHY_EDGE_ROW_9_Right_9
*219 TAP_TAPCELL_ROW_0_24
*220 TAP_TAPCELL_ROW_0_25
*221 TAP_TAPCELL_ROW_10_35
*222 TAP_TAPCELL_ROW_11_36
*223 TAP_TAPCELL_ROW_11_37
*224 TAP_TAPCELL_ROW_1_26
*225 TAP_TAPCELL_ROW_2_27
*226 TAP_TAPCELL_ROW_3_28
*227 TAP_TAPCELL_ROW_4_29
*228 TAP_TAPCELL_ROW_5_30
*229 TAP_TAPCELL_ROW_6_31
*230 TAP_TAPCELL_ROW_7_32
*231 TAP_TAPCELL_ROW_8_33
*232 TAP_TAPCELL_ROW_9_34
*233 _44_
*234 _45_
*235 _46_
*236 _47_
*237 _48_
*238 _49_
*239 _50_
*240 _51_
*241 _52_
*242 _53_
*243 _54_
*244 _55_
*245 _56_
*246 _57_
*247 _58_
*248 _59_
*249 _60_
*250 _61_
*251 _62_
*252 _63_
*253 _64_
*254 _65_
*255 _66_
*256 _67_
*257 _68_
*258 _69_
*259 _70_
*260 _71_
*261 _72_
*262 _73_
*263 _74_
*264 _75_
*265 _76_
*266 _77_
*267 _78_
*268 _79_
*269 _80_
*270 _81_
*271 _82_
*272 _83_
*273 _84_
*274 _85_
*275 _86_
*276 _87_
*277 _88_
*278 _89_
*279 _90_
*280 _91_
*281 _92_
*282 _93_
*283 _94_
*284 _95_
*285 _96_
*286 clkbuf_0_clk
*287 clkbuf_1_0__f_clk
*288 clkbuf_1_1__f_clk
*289 hold1
*290 hold2
*291 hold3
*292 hold4
*293 hold5
*294 hold6
*295 hold7
*296 hold8
*297 input1
*298 input2
*299 input3
*300 input4
*301 input5
*302 input6
*303 input7
*304 input8
*305 input9
*306 max_cap11
*307 output10
*308 wire12

*PORTS
clk I
duty[0] I
duty[1] I
duty[2] I
duty[3] I
duty[4] I
duty[5] I
duty[6] I
duty[7] I
pwm_out O
rst I

*D_NET *3 0.00234518
*CONN
*P clk I
*I *286:A I *D sky130_fd_sc_hd__clkbuf_16
*CAP
1 clk 0.00100074
2 *286:A 0
3 *3:13 0.00100074
4 *3:13 *268:A1 5.79559e-05
5 *3:13 *268:A2 5.79559e-05
6 *3:13 *270:A1 1.71761e-05
7 *3:13 *13:17 2.79122e-05
8 *3:13 *47:10 1.98991e-05
9 *3:13 *52:6 9.03964e-06
10 *3:13 *88:12 0.000153769
*RES
1 clk *3:13 38.9932 
2 *3:13 *286:A 23 
*END

*D_NET *4 0.00294369
*CONN
*P duty[0] I
*I *297:A I *D sky130_fd_sc_hd__clkbuf_1
*CAP
1 duty[0] 0.00102391
2 *297:A 0
3 *4:13 0.00102391
4 *4:13 pwm_out 5.41129e-05
5 *4:13 *247:B 3.78309e-05
6 *4:13 *299:A 0
7 *4:13 *7:13 4.18793e-05
8 *4:13 *32:27 0.000251862
9 *4:13 *33:28 0.000201845
10 *4:13 *40:10 0.000224225
11 *4:13 *69:12 2.95526e-05
12 *4:13 *69:25 5.45541e-05
*RES
1 duty[0] *4:13 31.5278 
2 *4:13 *297:A 23 
*END

*D_NET *5 0.00112684
*CONN
*P duty[1] I
*I *298:A I *D sky130_fd_sc_hd__clkbuf_1
*CAP
1 duty[1] 0.000553806
2 *298:A 0.000553806
3 *298:A *80:10 1.92253e-05
*RES
1 duty[1] *298:A 49.6829 
*END

*D_NET *6 0.00121447
*CONN
*P duty[2] I
*I *299:A I *D sky130_fd_sc_hd__buf_1
*CAP
1 duty[2] 0.000560353
2 *299:A 0.000560353
3 *299:A *7:13 4.18793e-05
4 *299:A *82:10 2.23467e-05
5 *299:A *83:10 2.95423e-05
6 *4:13 *299:A 0
*RES
1 duty[2] *299:A 49.0144 
*END

*D_NET *7 0.0010035
*CONN
*P duty[3] I
*I *300:A I *D sky130_fd_sc_hd__clkbuf_1
*CAP
1 duty[3] 0.000459869
2 *300:A 0
3 *7:13 0.000459869
4 *299:A *7:13 4.18793e-05
5 *4:13 *7:13 4.18793e-05
*RES
1 duty[3] *7:13 30.8405 
2 *7:13 *300:A 23 
*END

*D_NET *8 0.000951042
*CONN
*P duty[4] I
*I *301:A I *D sky130_fd_sc_hd__buf_1
*CAP
1 duty[4] 0.000443994
2 *301:A 0.000443994
3 *301:A pwm_out 0
4 *301:A *10:13 4.58739e-05
5 *301:A *84:10 1.71799e-05
*RES
1 duty[4] *301:A 48.9255 
*END

*D_NET *9 0.00074112
*CONN
*P duty[5] I
*I *302:A I *D sky130_fd_sc_hd__buf_1
*CAP
1 duty[5] 0.000320379
2 *302:A 0.000320379
3 *302:A *304:A 4.9512e-05
4 *302:A *10:13 4.73402e-05
5 *302:A *86:10 3.50862e-06
*RES
1 duty[5] *302:A 47.1648 
*END

*D_NET *10 0.000799782
*CONN
*P duty[6] I
*I *303:A I *D sky130_fd_sc_hd__clkbuf_1
*CAP
1 duty[6] 0.000353284
2 *303:A 0
3 *10:13 0.000353284
4 *301:A *10:13 4.58739e-05
5 *302:A *10:13 4.73402e-05
*RES
1 duty[6] *10:13 27.9849 
2 *10:13 *303:A 23 
*END

*D_NET *11 0.000826525
*CONN
*P duty[7] I
*I *304:A I *D sky130_fd_sc_hd__clkbuf_1
*CAP
1 duty[7] 0.000388507
2 *304:A 0.000388507
3 *302:A *304:A 4.9512e-05
*RES
1 duty[7] *304:A 48.2212 
*END

*D_NET *12 0.000836619
*CONN
*P pwm_out O
*I *307:X O *D sky130_fd_sc_hd__buf_2
*CAP
1 pwm_out 0.000378652
2 *307:X 0.000378652
3 pwm_out *36:14 2.52012e-05
4 *301:A pwm_out 0
5 *4:13 pwm_out 5.41129e-05
*RES
1 *307:X pwm_out 47.2507 
*END

*D_NET *13 0.000691307
*CONN
*P rst I
*I *305:A I *D sky130_fd_sc_hd__clkbuf_2
*CAP
1 rst 0.000331697
2 *305:A 0
3 *13:17 0.000331697
4 *3:13 *13:17 2.79122e-05
*RES
1 rst *13:17 27.2827 
2 *13:17 *305:A 23 
*END

*D_NET *14 0.00147326
*CONN
*I *278:D I *D sky130_fd_sc_hd__dfxtp_2
*I *259:Y O *D sky130_fd_sc_hd__nor2_1
*CAP
1 *278:D 6.76639e-06
2 *259:Y 0.000420622
3 *14:14 0.000427388
4 *278:D *261:A1 1.79713e-05
5 *278:D *60:16 4.9054e-06
6 *14:14 *48:10 2.61756e-05
7 *14:14 *60:8 0.000123386
8 *14:14 *60:12 0.000165394
9 *14:14 *60:24 1.15307e-05
10 *14:14 *73:31 0.000269117
*RES
1 *259:Y *14:14 45.8921 
2 *14:14 *278:D 38.1916 
*END

*D_NET *15 0.00104217
*CONN
*I *279:D I *D sky130_fd_sc_hd__dfxtp_1
*I *261:X O *D sky130_fd_sc_hd__o21a_1
*CAP
1 *279:D 6.92092e-05
2 *261:X 0.000352961
3 *15:10 0.00042217
4 *279:D *88:23 7.91569e-06
5 *15:10 *261:A1 9.64943e-05
6 *15:10 *60:24 8.50366e-05
7 *15:10 *73:16 8.3864e-06
*RES
1 *261:X *15:10 42.6814 
2 *15:10 *279:D 39.3102 
*END

*D_NET *16 0.000431907
*CONN
*I *280:D I *D sky130_fd_sc_hd__dfxtp_1
*I *264:Y O *D sky130_fd_sc_hd__nor2_1
*CAP
1 *280:D 0.000138442
2 *264:Y 0.000138442
3 *280:D *49:10 0.000140403
4 *280:D *73:6 9.77922e-06
5 *280:D *73:16 4.84129e-06
*RES
1 *264:Y *280:D 49.0657 
*END

*D_NET *17 0.00146156
*CONN
*I *281:D I *D sky130_fd_sc_hd__dfxtp_1
*I *267:Y O *D sky130_fd_sc_hd__nor3_1
*CAP
1 *281:D 7.89011e-05
2 *267:Y 0.000291513
3 *17:10 0.000370414
4 *17:10 *267:B 0.000187856
5 *17:10 *51:10 7.68979e-05
6 *17:10 *58:23 0.000316266
7 *17:10 *62:47 0.000139713
*RES
1 *267:Y *17:10 44.4214 
2 *17:10 *281:D 38.9373 
*END

*D_NET *18 0.00392886
*CONN
*I *282:D I *D sky130_fd_sc_hd__dfxtp_1
*I *269:X O *D sky130_fd_sc_hd__o21a_1
*CAP
1 *282:D 0
2 *269:X 0.000774429
3 *18:22 0.00019296
4 *18:14 0.000967388
5 *18:14 *269:A1 3.22051e-05
6 *18:14 *276:A2 3.62915e-05
7 *18:14 *284:CLK 7.61229e-06
8 *18:14 *20:16 0.000947178
9 *18:14 *52:18 5.58003e-05
10 *18:14 *65:24 2.89432e-06
11 *18:22 *284:CLK 0.000222933
12 *18:22 *59:19 0.000162793
13 *18:22 *59:27 0.000145282
14 *18:22 *65:24 0.000381092
*RES
1 *269:X *18:14 38.5979 
2 *18:14 *18:22 36.6959 
3 *18:22 *282:D 23 
*END

*D_NET *19 0.00271834
*CONN
*I *283:D I *D sky130_fd_sc_hd__dfxtp_1
*I *272:Y O *D sky130_fd_sc_hd__nor3_1
*CAP
1 *283:D 0.000346686
2 *272:Y 0.000573983
3 *19:14 0.000920669
4 *283:D *294:A 0.000142458
5 *283:D *54:29 0.000312772
6 *283:D *66:8 3.18142e-05
7 *19:14 *272:A 2.75733e-06
8 *19:14 *272:B 1.39668e-05
9 *19:14 *51:38 0
10 *19:14 *51:54 0
11 *19:14 *53:10 9.68009e-05
12 *19:14 *54:52 1.04438e-05
13 *19:14 *58:23 0
14 *19:14 *68:12 0.00021036
15 *19:14 *74:12 3.11498e-05
16 *19:14 *76:10 2.44742e-05
*RES
1 *272:Y *19:14 47.6321 
2 *19:14 *283:D 45.338 
*END

*D_NET *20 0.00442846
*CONN
*I *284:D I *D sky130_fd_sc_hd__dfxtp_1
*I *275:X O *D sky130_fd_sc_hd__o21a_1
*CAP
1 *284:D 0
2 *275:X 0.000452663
3 *20:16 0.000631794
4 *20:8 0.00108446
5 *20:8 *25:10 6.53047e-05
6 *20:8 *26:8 0.000139882
7 *20:8 *29:8 0.000364589
8 *20:8 *67:43 0.000123085
9 *20:16 *269:A1 5.79559e-05
10 *20:16 *276:A2 4.29638e-05
11 *20:16 *51:54 0.000220661
12 *20:16 *65:24 0.000252635
13 *20:16 *67:8 1.30878e-05
14 *20:16 *88:71 3.22051e-05
15 *18:14 *20:16 0.000947178
*RES
1 *275:X *20:8 46.2443 
2 *20:8 *20:16 32.3845 
3 *20:16 *284:D 23 
*END

*D_NET *21 0.00153216
*CONN
*I *285:D I *D sky130_fd_sc_hd__dfxtp_1
*I *277:X O *D sky130_fd_sc_hd__o21a_1
*CAP
1 *285:D 0.000114091
2 *277:X 0.000629051
3 *21:8 0.000743142
4 *285:D *65:35 4.58748e-05
5 *21:8 *75:12 0
6 *21:8 *88:59 0
*RES
1 *277:X *21:8 48.005 
2 *21:8 *285:D 40.0973 
*END

*D_NET *22 0.000738921
*CONN
*I *242:A1 I *D sky130_fd_sc_hd__a2111oi_1
*I *233:Y O *D sky130_fd_sc_hd__inv_2
*CAP
1 *242:A1 0
2 *233:Y 0.000192166
3 *22:10 0.000192166
4 *22:10 *252:B1 1.0092e-05
5 *22:10 *23:6 1.08875e-05
6 *22:10 *24:10 0.000165231
7 *22:10 *27:20 1.13812e-05
8 *22:10 *30:14 0.000156998
*RES
1 *233:Y *22:10 41.8321 
2 *22:10 *242:A1 38 
*END

*D_NET *23 0.00298705
*CONN
*I *252:A2 I *D sky130_fd_sc_hd__o21a_1
*I *238:A2 I *D sky130_fd_sc_hd__o2111ai_1
*I *241:A2 I *D sky130_fd_sc_hd__a22o_1
*I *234:Y O *D sky130_fd_sc_hd__inv_2
*CAP
1 *252:A2 0.000349044
2 *238:A2 0
3 *241:A2 4.12804e-05
4 *234:Y 0.000107605
5 *23:19 0.000439566
6 *23:6 0.000239406
7 *241:A2 *241:B1 4.97278e-06
8 *241:A2 *67:31 7.97439e-06
9 *241:A2 *68:42 1.08287e-05
10 *241:A2 *85:10 0.00010129
11 *241:A2 *87:22 5.56279e-05
12 *252:A2 *237:B_N 2.93658e-05
13 *252:A2 *238:A1 1.37048e-05
14 *252:A2 *252:A1 4.20451e-05
15 *252:A2 *25:10 1.0852e-05
16 *252:A2 *65:56 0.000244723
17 *252:A2 *67:47 4.91451e-05
18 *252:A2 *87:22 4.8612e-05
19 *23:6 *30:14 1.47795e-05
20 *23:6 *84:37 5.68958e-05
21 *23:6 *85:10 0.000482895
22 *23:6 *87:22 0.000272915
23 *23:19 *67:43 5.51181e-06
24 *23:19 *67:47 0.000185221
25 *23:19 *87:22 0.0001619
26 *22:10 *23:6 1.08875e-05
*RES
1 *234:Y *23:6 28.3857 
2 *23:6 *241:A2 24.595 
3 *23:6 *23:19 17.61 
4 *23:19 *238:A2 38 
5 *23:19 *252:A2 44.5871 
*END

*D_NET *24 0.00198695
*CONN
*I *252:B1 I *D sky130_fd_sc_hd__o21a_1
*I *238:B1 I *D sky130_fd_sc_hd__o2111ai_1
*I *235:X O *D sky130_fd_sc_hd__or2b_1
*CAP
1 *252:B1 0.000125257
2 *238:B1 8.73081e-05
3 *235:X 0.00015524
4 *24:10 0.000367805
5 *238:B1 *27:10 0.000270918
6 *238:B1 *28:10 0.000110894
7 *238:B1 *87:22 5.56279e-05
8 *252:B1 *237:B_N 2.95526e-05
9 *252:B1 *252:A1 0.000176457
10 *252:B1 *27:20 6.98968e-05
11 *252:B1 *31:10 6.5117e-06
12 *24:10 *252:A1 2.36931e-05
13 *24:10 *30:14 0.000149198
14 *24:10 *67:47 3.80964e-05
15 *24:10 *87:22 0.000145171
16 *22:10 *252:B1 1.0092e-05
17 *22:10 *24:10 0.000165231
*RES
1 *235:X *24:10 42.5364 
2 *24:10 *238:B1 41.0036 
3 *24:10 *252:B1 41.2314 
*END

*D_NET *25 0.000979108
*CONN
*I *238:C1 I *D sky130_fd_sc_hd__o2111ai_1
*I *236:X O *D sky130_fd_sc_hd__or2b_1
*CAP
1 *238:C1 0
2 *236:X 0.000287356
3 *25:10 0.000287356
4 *25:10 *241:B1 0.000139692
5 *25:10 *26:8 6.28499e-05
6 *25:10 *67:31 8.06804e-06
7 *25:10 *68:42 0.000107232
8 *25:10 *87:22 1.03972e-05
9 *252:A2 *25:10 1.0852e-05
10 *20:8 *25:10 6.53047e-05
*RES
1 *236:X *25:10 43.0129 
2 *25:10 *238:C1 38 
*END

*D_NET *26 0.000341836
*CONN
*I *238:D1 I *D sky130_fd_sc_hd__o2111ai_1
*I *237:X O *D sky130_fd_sc_hd__or2b_1
*CAP
1 *238:D1 0
2 *237:X 6.9552e-05
3 *26:8 6.9552e-05
4 *20:8 *26:8 0.000139882
5 *25:10 *26:8 6.28499e-05
*RES
1 *237:X *26:8 39.9057 
2 *26:8 *238:D1 38 
*END

*D_NET *27 0.00214888
*CONN
*I *242:B1 I *D sky130_fd_sc_hd__a2111oi_1
*I *254:A I *D sky130_fd_sc_hd__and2_1
*I *238:Y O *D sky130_fd_sc_hd__o2111ai_1
*CAP
1 *242:B1 0
2 *254:A 0
3 *238:Y 0.000325051
4 *27:20 0.000315927
5 *27:10 0.000640978
6 *27:10 *253:B1 3.86731e-05
7 *27:10 *28:10 2.69767e-05
8 *27:10 *65:56 9.41704e-05
9 *27:10 *87:22 6.68162e-05
10 *27:20 *237:B_N 1.21972e-05
11 *27:20 *254:B 5.56279e-05
12 *27:20 *31:10 0.000113235
13 *27:20 *41:10 9.4588e-05
14 *27:20 *86:10 1.24376e-05
15 *238:B1 *27:10 0.000270918
16 *252:B1 *27:20 6.98968e-05
17 *22:10 *27:20 1.13812e-05
*RES
1 *238:Y *27:10 29.38 
2 *27:10 *27:20 35.7586 
3 *27:20 *254:A 23 
4 *27:10 *242:B1 23 
*END

*D_NET *28 0.00176242
*CONN
*I *253:B1 I *D sky130_fd_sc_hd__a21oi_1
*I *242:C1 I *D sky130_fd_sc_hd__a2111oi_1
*I *239:X O *D sky130_fd_sc_hd__and2b_1
*CAP
1 *253:B1 0.000140396
2 *242:C1 0
3 *239:X 0.000463096
4 *28:10 0.000603492
5 *253:B1 *253:A2 0.000114752
6 *253:B1 *31:10 5.8118e-05
7 *28:10 *68:42 0.000179473
8 *28:10 *87:22 2.65505e-05
9 *238:B1 *28:10 0.000110894
10 *27:10 *253:B1 3.86731e-05
11 *27:10 *28:10 2.69767e-05
*RES
1 *239:X *28:10 29.9807 
2 *28:10 *242:C1 23 
3 *28:10 *253:B1 26.2521 
*END

*D_NET *29 0.00142503
*CONN
*I *241:B2 I *D sky130_fd_sc_hd__a22o_1
*I *240:Y O *D sky130_fd_sc_hd__inv_2
*CAP
1 *241:B2 0
2 *240:Y 0.000427843
3 *29:8 0.000427843
4 *29:8 *54:29 3.95187e-05
5 *29:8 *85:30 0.00016524
6 *20:8 *29:8 0.000364589
*RES
1 *240:Y *29:8 45.8921 
2 *29:8 *241:B2 38 
*END

*D_NET *30 0.00168697
*CONN
*I *253:A2 I *D sky130_fd_sc_hd__a21oi_1
*I *242:D1 I *D sky130_fd_sc_hd__a2111oi_1
*I *241:X O *D sky130_fd_sc_hd__a22o_1
*CAP
1 *253:A2 0.000233515
2 *242:D1 0
3 *241:X 0.000284386
4 *30:16 0.000233515
5 *30:14 0.000284386
6 *30:14 *42:8 6.86315e-06
7 *30:14 *68:42 0.000141352
8 *30:14 *87:22 6.72291e-05
9 *253:B1 *253:A2 0.000114752
10 *22:10 *30:14 0.000156998
11 *23:6 *30:14 1.47795e-05
12 *24:10 *30:14 0.000149198
*RES
1 *241:X *30:14 44.5043 
2 *30:14 *30:16 15 
3 *30:16 *242:D1 23 
4 *30:16 *253:A2 26.9979 
*END

*D_NET *31 0.00129061
*CONN
*I *308:A I *D sky130_fd_sc_hd__clkbuf_1
*I *242:Y O *D sky130_fd_sc_hd__a2111oi_1
*CAP
1 *308:A 2.80909e-05
2 *242:Y 0.000402173
3 *31:10 0.000430264
4 *308:A *36:14 5.56356e-05
5 *31:10 *33:14 5.91105e-05
6 *31:10 *43:10 0.000137473
7 *252:B1 *31:10 6.5117e-06
8 *253:B1 *31:10 5.8118e-05
9 *27:20 *31:10 0.000113235
*RES
1 *242:Y *31:10 46.1614 
2 *31:10 *308:A 38.6214 
*END

*D_NET *32 0.00310956
*CONN
*I *251:A2 I *D sky130_fd_sc_hd__a211oi_1
*I *250:A2 I *D sky130_fd_sc_hd__o211ai_1
*I *243:Y O *D sky130_fd_sc_hd__inv_2
*CAP
1 *251:A2 0
2 *250:A2 0.000225476
3 *243:Y 0
4 *32:33 3.48698e-05
5 *32:27 0.000712238
6 *32:4 0.000902844
7 *250:A2 *243:A 7.83279e-05
8 *250:A2 *39:27 9.87985e-06
9 *32:27 *258:B1 3.20631e-05
10 *32:27 *33:28 0.000287777
11 *32:27 *35:12 4.05745e-05
12 *32:27 *39:27 2.27142e-05
13 *32:27 *40:10 0.000320265
14 *32:27 *46:10 8.36198e-05
15 *32:27 *83:24 1.54206e-05
16 *32:33 *35:12 5.86204e-05
17 *32:33 *69:25 1.00084e-05
18 *32:33 *82:10 2.29977e-05
19 *4:13 *32:27 0.000251862
*RES
1 *243:Y *32:4 23 
2 *32:4 *250:A2 26.3764 
3 *32:4 *32:27 42.0764 
4 *32:27 *32:33 30.8493 
5 *32:33 *251:A2 23 
*END

*D_NET *33 0.00422606
*CONN
*I *257:A1 I *D sky130_fd_sc_hd__o31a_1
*I *247:A I *D sky130_fd_sc_hd__or3_1
*I *244:X O *D sky130_fd_sc_hd__and2b_1
*CAP
1 *257:A1 0
2 *247:A 0
3 *244:X 0.000542736
4 *33:28 0.000434214
5 *33:20 0.000567608
6 *33:14 0.00067613
7 *33:14 *256:A1 0.00010129
8 *33:14 *36:14 0.000186029
9 *33:14 *39:27 0.000215098
10 *33:14 *40:10 0.000111106
11 *33:14 *43:10 0.000114794
12 *33:14 *46:10 1.26815e-05
13 *33:14 *72:21 0.000165231
14 *33:14 *83:24 2.70572e-05
15 *33:20 *255:B 6.17437e-06
16 *33:20 *257:A2 7.48414e-05
17 *33:20 *257:B1 2.35413e-05
18 *33:20 *46:10 5.3304e-05
19 *33:20 *63:83 8.48502e-06
20 *33:28 *247:B 2.93431e-05
21 *33:28 *69:12 2.83509e-05
22 *33:28 *69:25 2.68258e-05
23 *33:28 *83:10 0.000165547
24 *33:28 *83:24 0.000106938
25 *4:13 *33:28 0.000201845
26 *31:10 *33:14 5.91105e-05
27 *32:27 *33:28 0.000287777
*RES
1 *244:X *33:14 48.8543 
2 *33:14 *33:20 17.5479 
3 *33:20 *33:28 39.6114 
4 *33:28 *247:A 23 
5 *33:20 *257:A1 23 
*END

*D_NET *34 0.00142766
*CONN
*I *247:B I *D sky130_fd_sc_hd__or3_1
*I *255:B I *D sky130_fd_sc_hd__nor3b_1
*I *245:X O *D sky130_fd_sc_hd__and2b_1
*CAP
1 *247:B 0.000239037
2 *255:B 0.000183345
3 *245:X 8.05935e-06
4 *34:8 0.000430442
5 *247:B *35:12 0.000183102
6 *247:B *40:10 2.93667e-05
7 *247:B *82:10 0
8 *255:B *39:27 5.79751e-05
9 *255:B *40:10 0.000169679
10 *255:B *63:83 5.3304e-05
11 *4:13 *247:B 3.78309e-05
12 *33:20 *255:B 6.17437e-06
13 *33:28 *247:B 2.93431e-05
*RES
1 *245:X *34:8 38.3211 
2 *34:8 *255:B 41.6768 
3 *34:8 *247:B 42.8161 
*END

*D_NET *35 0.0013661
*CONN
*I *247:C I *D sky130_fd_sc_hd__or3_1
*I *246:X O *D sky130_fd_sc_hd__xor2_1
*CAP
1 *247:C 0
2 *246:X 0.000315208
3 *35:12 0.000315208
4 *35:12 *245:A_N 2.95423e-05
5 *35:12 *246:B 4.40422e-05
6 *35:12 *40:10 0.000138859
7 *35:12 *64:61 0.000194236
8 *35:12 *69:25 3.11916e-05
9 *35:12 *82:10 1.55195e-05
10 *247:B *35:12 0.000183102
11 *32:27 *35:12 4.05745e-05
12 *32:33 *35:12 5.86204e-05
*RES
1 *246:X *35:12 45.54 
2 *35:12 *247:C 38 
*END

*D_NET *36 0.00239943
*CONN
*I *251:B1 I *D sky130_fd_sc_hd__a211oi_1
*I *256:B1 I *D sky130_fd_sc_hd__a21oi_1
*I *247:X O *D sky130_fd_sc_hd__or3_1
*CAP
1 *251:B1 0
2 *256:B1 0
3 *247:X 9.64442e-05
4 *36:14 0.000686767
5 *36:8 0.000783211
6 *36:8 *39:33 6.66613e-05
7 *36:8 *82:10 0.000210428
8 *36:14 *255:C_N 0.000132285
9 *36:14 *306:A 5.3304e-05
10 *36:14 *39:27 0
11 *36:14 *39:33 8.57577e-05
12 *36:14 *82:10 1.0092e-05
13 *36:14 *83:24 7.61229e-06
14 pwm_out *36:14 2.52012e-05
15 *308:A *36:14 5.56356e-05
16 *33:14 *36:14 0.000186029
*RES
1 *247:X *36:8 40.9621 
2 *36:8 *36:14 28.63 
3 *36:14 *256:B1 23 
4 *36:8 *251:B1 38 
*END

*D_NET *37 0.00236941
*CONN
*I *256:A1 I *D sky130_fd_sc_hd__a21oi_1
*I *250:B1 I *D sky130_fd_sc_hd__o211ai_1
*I *248:X O *D sky130_fd_sc_hd__or2b_1
*CAP
1 *256:A1 0.000302857
2 *250:B1 0
3 *248:X 0.00044442
4 *37:14 0.000747277
5 *256:A1 *244:A_N 0.000268075
6 *256:A1 *266:A 9.11348e-06
7 *256:A1 *38:10 1.08875e-05
8 *256:A1 *38:22 2.2475e-05
9 *256:A1 *83:24 8.15864e-05
10 *256:A1 *88:110 0
11 *37:14 *244:A_N 1.22093e-05
12 *37:14 *266:A 2.86718e-05
13 *37:14 *38:22 1.00084e-05
14 *37:14 *64:12 0.000168503
15 *37:14 *69:12 0.00016204
16 *33:14 *256:A1 0.00010129
*RES
1 *248:X *37:14 47.28 
2 *37:14 *250:B1 38 
3 *37:14 *256:A1 44.9393 
*END

*D_NET *38 0.00119668
*CONN
*I *250:C1 I *D sky130_fd_sc_hd__o211ai_1
*I *249:X O *D sky130_fd_sc_hd__or2b_1
*CAP
1 *250:C1 0
2 *249:X 0.000223561
3 *38:22 0.000215125
4 *38:10 0.000438685
5 *38:10 *244:A_N 0.00011415
6 *38:10 *39:12 1.85903e-05
7 *38:22 *243:A 4.90233e-05
8 *38:22 *39:6 9.41704e-05
9 *256:A1 *38:10 1.08875e-05
10 *256:A1 *38:22 2.2475e-05
11 *37:14 *38:22 1.00084e-05
*RES
1 *249:X *38:10 41.2521 
2 *38:10 *38:22 48.1952 
3 *38:22 *250:C1 23 
*END

*D_NET *39 0.00333422
*CONN
*I *251:C1 I *D sky130_fd_sc_hd__a211oi_1
*I *256:A2 I *D sky130_fd_sc_hd__a21oi_1
*I *250:Y O *D sky130_fd_sc_hd__o211ai_1
*CAP
1 *251:C1 0
2 *256:A2 0
3 *250:Y 0.000106423
4 *39:33 8.09461e-05
5 *39:27 0.00085582
6 *39:12 0.000129724
7 *39:6 0.00101102
8 *39:6 *243:A 0.000227473
9 *39:12 *45:10 5.11807e-05
10 *39:12 *83:24 1.44001e-05
11 *39:27 *243:A 1.24376e-05
12 *39:27 *255:C_N 5.40241e-05
13 *39:27 *258:B1 9.79925e-05
14 *39:27 *40:10 1.95521e-05
15 *39:27 *63:83 5.56356e-05
16 *39:27 *72:21 4.67488e-05
17 *250:A2 *39:27 9.87985e-06
18 *255:B *39:27 5.79751e-05
19 *32:27 *39:27 2.27142e-05
20 *33:14 *39:27 0.000215098
21 *36:8 *39:33 6.66613e-05
22 *36:14 *39:27 0
23 *36:14 *39:33 8.57577e-05
24 *38:10 *39:12 1.85903e-05
25 *38:22 *39:6 9.41704e-05
*RES
1 *250:Y *39:6 25.5271 
2 *39:6 *39:12 32.61 
3 *39:12 *256:A2 23 
4 *39:6 *39:27 41.8071 
5 *39:27 *39:33 31.9057 
6 *39:33 *251:C1 23 
*END

*D_NET *40 0.00212554
*CONN
*I *258:A2_N I *D sky130_fd_sc_hd__o2bb2a_1
*I *251:Y O *D sky130_fd_sc_hd__a211oi_1
*CAP
1 *258:A2_N 9.60605e-05
2 *251:Y 0.000422459
3 *40:10 0.00051852
4 *258:A2_N *72:21 4.67488e-05
5 *40:10 *246:B 2.86997e-05
6 *247:B *40:10 2.93667e-05
7 *255:B *40:10 0.000169679
8 *4:13 *40:10 0.000224225
9 *32:27 *40:10 0.000320265
10 *33:14 *40:10 0.000111106
11 *35:12 *40:10 0.000138859
12 *39:27 *40:10 1.95521e-05
*RES
1 *251:Y *40:10 47.86 
2 *40:10 *258:A2_N 39.0979 
*END

*D_NET *41 0.00117942
*CONN
*I *253:A1 I *D sky130_fd_sc_hd__a21oi_1
*I *252:X O *D sky130_fd_sc_hd__o21a_1
*CAP
1 *253:A1 0
2 *252:X 0.000178952
3 *41:10 0.000178952
4 *41:10 *237:B_N 0.00023353
5 *41:10 *254:B 5.56279e-05
6 *41:10 *42:8 2.16891e-05
7 *41:10 *84:37 0.000262857
8 *41:10 *86:10 0.000153226
9 *27:20 *41:10 9.4588e-05
*RES
1 *252:X *41:10 43.9657 
2 *41:10 *253:A1 38 
*END

*D_NET *42 0.000655344
*CONN
*I *254:B I *D sky130_fd_sc_hd__and2_1
*I *253:Y O *D sky130_fd_sc_hd__a21oi_1
*CAP
1 *254:B 1.56031e-05
2 *253:Y 0.000147024
3 *42:8 0.000162627
4 *42:8 *86:10 0.000190283
5 *27:20 *254:B 5.56279e-05
6 *30:14 *42:8 6.86315e-06
7 *41:10 *254:B 5.56279e-05
8 *41:10 *42:8 2.16891e-05
*RES
1 *253:Y *42:8 41.3143 
2 *42:8 *254:B 38.6214 
*END

*D_NET *43 0.00164986
*CONN
*I *258:B1 I *D sky130_fd_sc_hd__o2bb2a_1
*I *254:X O *D sky130_fd_sc_hd__and2_1
*CAP
1 *258:B1 3.78201e-05
2 *254:X 0.000416393
3 *43:10 0.000454213
4 *43:10 *237:B_N 0.000143675
5 *43:10 *71:8 6.35028e-05
6 *43:10 *72:21 0.000137744
7 *43:10 *83:24 1.41891e-05
8 *31:10 *43:10 0.000137473
9 *32:27 *258:B1 3.20631e-05
10 *33:14 *43:10 0.000114794
11 *39:27 *258:B1 9.79925e-05
*RES
1 *254:X *43:10 47.1143 
2 *43:10 *258:B1 39.0979 
*END

*D_NET *44 0.000413511
*CONN
*I *257:A2 I *D sky130_fd_sc_hd__o31a_1
*I *255:Y O *D sky130_fd_sc_hd__nor3b_1
*CAP
1 *257:A2 7.33738e-05
2 *255:Y 7.33738e-05
3 *257:A2 *257:B1 1.21972e-05
4 *257:A2 *63:83 0.000179725
5 *33:20 *257:A2 7.48414e-05
*RES
1 *255:Y *257:A2 48.0507 
*END

*D_NET *45 0.000976769
*CONN
*I *257:A3 I *D sky130_fd_sc_hd__o31a_1
*I *256:Y O *D sky130_fd_sc_hd__a21oi_1
*CAP
1 *257:A3 0
2 *256:Y 0.000276468
3 *45:10 0.000276468
4 *45:10 *83:24 0.000372653
5 *39:12 *45:10 5.11807e-05
*RES
1 *256:Y *45:10 43.3443 
2 *45:10 *257:A3 38 
*END

*D_NET *46 0.000514839
*CONN
*I *258:B2 I *D sky130_fd_sc_hd__o2bb2a_1
*I *257:X O *D sky130_fd_sc_hd__o31a_1
*CAP
1 *258:B2 0
2 *257:X 0.000110789
3 *46:10 0.000110789
4 *46:10 *71:8 0.000137898
5 *46:10 *72:21 5.75756e-06
6 *32:27 *46:10 8.36198e-05
7 *33:14 *46:10 1.26815e-05
8 *33:20 *46:10 5.3304e-05
*RES
1 *257:X *46:10 40.5271 
2 *46:10 *258:B2 38 
*END

*D_NET *47 0.00157366
*CONN
*I *261:B1 I *D sky130_fd_sc_hd__o21a_1
*I *260:Y O *D sky130_fd_sc_hd__a21oi_1
*CAP
1 *261:B1 0
2 *260:Y 0.000604537
3 *47:10 0.000604537
4 *47:10 *88:12 0.000275954
5 *47:10 *88:36 6.12208e-05
6 *47:10 *88:47 7.51453e-06
7 *3:13 *47:10 1.98991e-05
*RES
1 *260:Y *47:10 48.1086 
2 *47:10 *261:B1 38 
*END

*D_NET *48 0.00121292
*CONN
*I *264:A I *D sky130_fd_sc_hd__nor2_1
*I *262:Y O *D sky130_fd_sc_hd__a21oi_1
*CAP
1 *264:A 0
2 *262:Y 0.000422248
3 *48:10 0.000422248
4 *48:10 *262:A1 2.18712e-05
5 *48:10 *262:A2 3.22051e-05
6 *48:10 *262:B1 4.91172e-06
7 *48:10 *60:8 1.98009e-05
8 *48:10 *73:31 0.000139428
9 *48:10 *88:12 0.000124033
10 *14:14 *48:10 2.61756e-05
*RES
1 *262:Y *48:10 46.7 
2 *48:10 *264:A 38 
*END

*D_NET *49 0.00221374
*CONN
*I *264:B I *D sky130_fd_sc_hd__nor2_1
*I *263:X O *D sky130_fd_sc_hd__a31o_1
*CAP
1 *264:B 0
2 *263:X 0.000468758
3 *49:10 0.000468758
4 *49:10 *62:51 0.000359533
5 *49:10 *63:6 1.46205e-05
6 *49:10 *73:6 0.000761672
7 *280:D *49:10 0.000140403
*RES
1 *263:X *49:10 36.05 
2 *49:10 *264:B 23 
*END

*D_NET *50 0.000803873
*CONN
*I *267:B I *D sky130_fd_sc_hd__nor3_1
*I *265:Y O *D sky130_fd_sc_hd__a31oi_1
*CAP
1 *267:B 0.000143045
2 *265:Y 0.000143045
3 *267:B *265:A1 5.3304e-05
4 *267:B *265:B1 9.75336e-06
5 *267:B *61:26 0.000188927
6 *267:B *63:35 5.3304e-05
7 *267:B *77:20 2.46387e-05
8 *17:10 *267:B 0.000187856
*RES
1 *265:Y *267:B 49.9564 
*END

*D_NET *51 0.0063207
*CONN
*I *270:A2 I *D sky130_fd_sc_hd__a21oi_1
*I *271:C I *D sky130_fd_sc_hd__and3_1
*I *269:A2 I *D sky130_fd_sc_hd__o21a_1
*I *268:A2 I *D sky130_fd_sc_hd__a21oi_1
*I *267:C I *D sky130_fd_sc_hd__nor3_1
*I *266:X O *D sky130_fd_sc_hd__and4_1
*CAP
1 *270:A2 0.000101754
2 *271:C 6.42707e-05
3 *269:A2 0
4 *268:A2 0.00022196
5 *267:C 8.37121e-05
6 *266:X 0.000304795
7 *51:54 0.000676832
8 *51:38 0.0009314
9 *51:34 0.000370299
10 *51:25 0.000442673
11 *51:10 0.000530972
12 *267:C *61:26 0.000102389
13 *267:C *77:20 0.000102389
14 *268:A2 *270:A1 0.000588342
15 *270:A2 *270:A1 0.000218601
16 *271:C *68:12 1.80307e-05
17 *51:10 *58:23 3.14393e-05
18 *51:10 *61:40 5.62266e-05
19 *51:25 *287:A 3.04661e-05
20 *51:25 *58:23 5.16183e-05
21 *51:25 *88:59 0
22 *51:34 *270:A1 0.000127654
23 *51:38 *287:A 0.000278687
24 *51:54 *273:B 0.000237755
25 *51:54 *274:B 0
26 *51:54 *287:A 0.000392912
27 *3:13 *268:A2 5.79559e-05
28 *17:10 *51:10 7.68979e-05
29 *19:14 *51:38 0
30 *19:14 *51:54 0
31 *20:16 *51:54 0.000220661
*RES
1 *266:X *51:10 42.3086 
2 *51:10 *267:C 39.7193 
3 *51:10 *51:25 17.61 
4 *51:25 *268:A2 29.3386 
5 *51:25 *51:34 1.57429 
6 *51:34 *51:38 19.0186 
7 *51:38 *51:54 28.1225 
8 *51:54 *269:A2 23 
9 *51:38 *271:C 38.7043 
10 *51:34 *270:A2 25.5271 
*END

*D_NET *52 0.00472615
*CONN
*I *269:B1 I *D sky130_fd_sc_hd__o21a_1
*I *268:Y O *D sky130_fd_sc_hd__a21oi_1
*CAP
1 *269:B1 0
2 *268:Y 0.000949294
3 *52:18 0.000463547
4 *52:6 0.00141284
5 *52:6 *270:A1 0.000579078
6 *52:6 *53:10 5.5792e-05
7 *52:18 *274:B 6.25872e-05
8 *52:18 *276:A2 5.3304e-05
9 *52:18 *291:A 1.223e-05
10 *52:18 *54:52 0.000134767
11 *52:18 *55:17 4.0706e-05
12 *52:18 *66:14 8.36198e-05
13 *52:18 *66:36 0.000267248
14 *52:18 *68:12 5.71002e-06
15 *52:18 *76:10 8.36198e-05
16 *52:18 *78:10 1.41891e-05
17 *52:18 *85:22 0.000372682
18 *52:18 *88:71 7.00964e-05
19 *3:13 *52:6 9.03964e-06
20 *18:14 *52:18 5.58003e-05
*RES
1 *268:Y *52:6 36.485 
2 *52:6 *52:18 41.745 
3 *52:18 *269:B1 23 
*END

*D_NET *53 0.00100584
*CONN
*I *272:B I *D sky130_fd_sc_hd__nor3_1
*I *270:Y O *D sky130_fd_sc_hd__a21oi_1
*CAP
1 *272:B 4.67461e-05
2 *270:Y 0.000216442
3 *53:10 0.000263188
4 *272:B *249:B_N 5.5792e-05
5 *272:B *54:52 8.00485e-05
6 *272:B *63:35 4.50994e-05
7 *53:10 *54:52 4.245e-05
8 *53:10 *74:12 4.2812e-06
9 *53:10 *76:10 6.43792e-05
10 *53:10 *77:20 0
11 *53:10 *88:110 2.08572e-05
12 *19:14 *272:B 1.39668e-05
13 *19:14 *53:10 9.68009e-05
14 *52:6 *53:10 5.5792e-05
*RES
1 *270:Y *53:10 42.2879 
2 *53:10 *272:B 39.5743 
*END

*D_NET *54 0.00547668
*CONN
*I *272:C I *D sky130_fd_sc_hd__nor3_1
*I *275:A2 I *D sky130_fd_sc_hd__o21a_1
*I *273:B I *D sky130_fd_sc_hd__and2_1
*I *271:X O *D sky130_fd_sc_hd__and3_1
*CAP
1 *272:C 0
2 *275:A2 0
3 *273:B 0.000397553
4 *271:X 8.9603e-05
5 *54:52 0.000471343
6 *54:31 0.000471343
7 *54:29 0.000518035
8 *54:10 0.00100519
9 *273:B *273:A 0.00015444
10 *273:B *277:B1 5.50106e-05
11 *273:B *287:A 0.000264117
12 *273:B *294:A 0.000105787
13 *273:B *55:17 0
14 *273:B *67:19 0.000312478
15 *54:10 *287:A 0.000113244
16 *54:29 *66:8 6.57815e-06
17 *54:29 *68:27 6.22884e-05
18 *54:29 *78:10 0.000233726
19 *54:29 *85:22 5.44889e-06
20 *54:29 *87:22 5.68958e-05
21 *54:52 *249:B_N 3.3849e-05
22 *54:52 *265:B1 0
23 *54:52 *275:B1 7.97912e-05
24 *54:52 *65:39 0.000144501
25 *54:52 *76:10 3.7707e-05
26 *272:B *54:52 8.00485e-05
27 *283:D *54:29 0.000312772
28 *19:14 *54:52 1.04438e-05
29 *29:8 *54:29 3.95187e-05
30 *51:54 *273:B 0.000237755
31 *52:18 *54:52 0.000134767
32 *53:10 *54:52 4.245e-05
*RES
1 *271:X *54:10 40.175 
2 *54:10 *273:B 47.9221 
3 *54:10 *54:29 39.5493 
4 *54:29 *54:31 15 
5 *54:31 *275:A2 23 
6 *54:31 *54:52 40.3157 
7 *54:52 *272:C 23 
*END

*D_NET *55 0.00288093
*CONN
*I *274:B I *D sky130_fd_sc_hd__nor2_1
*I *276:A2 I *D sky130_fd_sc_hd__a21oi_1
*I *277:A2 I *D sky130_fd_sc_hd__o21a_1
*I *273:X O *D sky130_fd_sc_hd__and2_1
*CAP
1 *274:B 0.000106218
2 *276:A2 0.000198298
3 *277:A2 0.000370964
4 *273:X 0
5 *55:17 0.000705032
6 *55:4 0.00077148
7 *276:A2 *88:71 5.56279e-05
8 *277:A2 *277:B1 0.000266025
9 *55:17 *277:B1 0.000148249
10 *55:17 *57:8 2.3178e-05
11 *273:B *55:17 0
12 *18:14 *276:A2 3.62915e-05
13 *20:16 *276:A2 4.29638e-05
14 *51:54 *274:B 0
15 *52:18 *274:B 6.25872e-05
16 *52:18 *276:A2 5.3304e-05
17 *52:18 *55:17 4.0706e-05
*RES
1 *273:X *55:4 23 
2 *55:4 *277:A2 28.3857 
3 *55:4 *55:17 20.9657 
4 *55:17 *276:A2 41.9979 
5 *55:17 *274:B 39.9057 
*END

*D_NET *56 0.00172098
*CONN
*I *275:B1 I *D sky130_fd_sc_hd__o21a_1
*I *274:Y O *D sky130_fd_sc_hd__nor2_1
*CAP
1 *275:B1 0.000187327
2 *274:Y 0.000123389
3 *56:8 0.000310715
4 *275:B1 *65:39 5.25202e-05
5 *275:B1 *66:36 5.3304e-05
6 *275:B1 *85:22 0.000264757
7 *56:8 *291:A 0.000110258
8 *56:8 *66:14 8.57485e-05
9 *56:8 *66:36 0.000232646
10 *56:8 *68:12 0.00022052
11 *54:52 *275:B1 7.97912e-05
*RES
1 *274:Y *56:8 42.3707 
2 *56:8 *275:B1 42.4536 
*END

*D_NET *57 0.00168345
*CONN
*I *277:B1 I *D sky130_fd_sc_hd__o21a_1
*I *276:Y O *D sky130_fd_sc_hd__a21oi_1
*CAP
1 *277:B1 0.000490836
2 *276:Y 0.00010466
3 *57:8 0.000595496
4 *273:B *277:B1 5.50106e-05
5 *277:A2 *277:B1 0.000266025
6 *55:17 *277:B1 0.000148249
7 *55:17 *57:8 2.3178e-05
*RES
1 *276:Y *57:8 39.9057 
2 *57:8 *277:B1 49.1236 
*END

*D_NET *58 0.00488379
*CONN
*I *288:A I *D sky130_fd_sc_hd__clkbuf_16
*I *287:A I *D sky130_fd_sc_hd__clkbuf_16
*I *286:X O *D sky130_fd_sc_hd__clkbuf_16
*CAP
1 *288:A 0
2 *287:A 0.000446406
3 *286:X 0
4 *58:23 0.000856234
5 *58:6 0.00130264
6 *287:A *75:12 5.40241e-05
7 *287:A *75:25 4.67488e-05
8 *287:A *88:59 0.000181794
9 *58:23 *62:47 8.42697e-05
10 *58:23 *63:14 0.000242738
11 *58:23 *63:35 6.12484e-05
12 *58:23 *77:20 0.000128935
13 *273:B *287:A 0.000264117
14 *17:10 *58:23 0.000316266
15 *19:14 *58:23 0
16 *51:10 *58:23 3.14393e-05
17 *51:25 *287:A 3.04661e-05
18 *51:25 *58:23 5.16183e-05
19 *51:38 *287:A 0.000278687
20 *51:54 *287:A 0.000392912
21 *54:10 *287:A 0.000113244
*RES
1 *286:X *58:6 38 
2 *58:6 *287:A 49.7036 
3 *58:6 *58:23 33.3943 
4 *58:23 *288:A 23 
*END

*D_NET *59 0.00204069
*CONN
*I *285:CLK I *D sky130_fd_sc_hd__dfxtp_1
*I *283:CLK I *D sky130_fd_sc_hd__dfxtp_1
*I *282:CLK I *D sky130_fd_sc_hd__dfxtp_1
*I *284:CLK I *D sky130_fd_sc_hd__dfxtp_1
*I *287:X O *D sky130_fd_sc_hd__clkbuf_16
*CAP
1 *285:CLK 0.00011369
2 *283:CLK 3.64808e-05
3 *282:CLK 0
4 *284:CLK 0.00017517
5 *287:X 0
6 *59:27 0.000236686
7 *59:19 0.000435923
8 *59:6 0.000297197
9 *284:CLK *65:24 2.24022e-05
10 *285:CLK *65:24 1.46784e-05
11 *285:CLK *65:31 6.05544e-05
12 *59:19 *65:24 1.12919e-05
13 *59:27 *65:8 9.79925e-05
14 *18:14 *284:CLK 7.61229e-06
15 *18:22 *284:CLK 0.000222933
16 *18:22 *59:19 0.000162793
17 *18:22 *59:27 0.000145282
*RES
1 *287:X *59:6 38 
2 *59:6 *284:CLK 42.2879 
3 *59:6 *59:19 2.61 
4 *59:19 *59:27 19.1221 
5 *59:27 *282:CLK 23 
6 *59:27 *283:CLK 23.6214 
7 *59:19 *285:CLK 40.2579 
*END

*D_NET *60 0.00309303
*CONN
*I *280:CLK I *D sky130_fd_sc_hd__dfxtp_1
*I *281:CLK I *D sky130_fd_sc_hd__dfxtp_1
*I *278:CLK I *D sky130_fd_sc_hd__dfxtp_2
*I *279:CLK I *D sky130_fd_sc_hd__dfxtp_1
*I *288:X O *D sky130_fd_sc_hd__clkbuf_16
*CAP
1 *280:CLK 0
2 *281:CLK 0
3 *278:CLK 0
4 *279:CLK 0
5 *288:X 0.000254816
6 *60:44 0.000512394
7 *60:24 0.000203897
8 *60:16 0.000364536
9 *60:12 0.000782528
10 *60:8 0.00036431
11 *60:8 *73:31 1.12919e-05
12 *60:16 *261:A1 2.98364e-05
13 *60:24 *88:23 1.92253e-05
14 *60:44 *261:A1 0.000140139
15 *278:D *60:16 4.9054e-06
16 *14:14 *60:8 0.000123386
17 *14:14 *60:12 0.000165394
18 *14:14 *60:24 1.15307e-05
19 *15:10 *60:24 8.50366e-05
20 *48:10 *60:8 1.98009e-05
*RES
1 *288:X *60:8 42.7229 
2 *60:8 *60:12 17.2579 
3 *60:12 *60:16 2.42357 
4 *60:16 *60:24 33.5836 
5 *60:24 *279:CLK 23 
6 *60:16 *278:CLK 23 
7 *60:12 *60:44 39.1143 
8 *60:44 *281:CLK 23 
9 *60:8 *280:CLK 38 
*END

*D_NET *61 0.00550556
*CONN
*I *266:D I *D sky130_fd_sc_hd__and4_1
*I *243:A I *D sky130_fd_sc_hd__inv_2
*I *289:A I *D sky130_fd_sc_hd__dlygate4sd3_1
*I *293:A I *D sky130_fd_sc_hd__dlygate4sd3_1
*I *265:A3 I *D sky130_fd_sc_hd__a31oi_1
*I *278:Q O *D sky130_fd_sc_hd__dfxtp_2
*CAP
1 *266:D 0
2 *243:A 0.000347813
3 *289:A 0
4 *293:A 0
5 *265:A3 0
6 *278:Q 0.000140938
7 *61:52 0.000237587
8 *61:44 0.000676227
9 *61:40 0.000264051
10 *61:33 0.000200235
11 *61:26 0.000331007
12 *61:10 0.000358018
13 *61:8 0.000140938
14 *243:A *266:A 0.000331879
15 *243:A *266:B 9.79925e-05
16 *61:26 *265:B1 0
17 *61:26 *62:10 0.000100318
18 *61:26 *62:14 5.50587e-05
19 *61:26 *62:43 4.21048e-05
20 *61:26 *77:20 8.09875e-05
21 *61:26 *88:47 6.9565e-05
22 *61:33 *62:43 5.56356e-05
23 *61:40 *62:43 0.000146822
24 *61:40 *62:84 0.000255905
25 *61:44 *266:B 5.3304e-05
26 *61:44 *62:84 2.1819e-05
27 *61:44 *62:96 4.67488e-05
28 *61:44 *77:35 8.48502e-06
29 *61:52 *62:51 0.000100061
30 *61:52 *63:21 0.000100061
31 *61:52 *63:25 5.33366e-05
32 *61:52 *63:35 1.51481e-05
33 *61:52 *74:12 0.000186054
34 *61:52 *77:41 0.00027266
35 *250:A2 *243:A 7.83279e-05
36 *267:B *61:26 0.000188927
37 *267:C *61:26 0.000102389
38 *38:22 *243:A 4.90233e-05
39 *39:6 *243:A 0.000227473
40 *39:27 *243:A 1.24376e-05
41 *51:10 *61:40 5.62266e-05
*RES
1 *278:Q *61:8 39.9057 
2 *61:8 *61:10 15 
3 *61:10 *61:26 38.8036 
4 *61:26 *265:A3 23 
5 *61:10 *61:33 0.621429 
6 *61:33 *293:A 23 
7 *61:33 *61:40 4.43286 
8 *61:40 *61:44 2.07143 
9 *61:44 *61:52 36.8771 
10 *61:52 *289:A 23 
11 *61:44 *243:A 32.715 
12 *61:40 *266:D 23 
*END

*D_NET *62 0.00950481
*CONN
*I *266:C I *D sky130_fd_sc_hd__and4_1
*I *249:B_N I *D sky130_fd_sc_hd__or2b_1
*I *262:A1 I *D sky130_fd_sc_hd__a21oi_1
*I *263:A2 I *D sky130_fd_sc_hd__a31o_1
*I *248:A I *D sky130_fd_sc_hd__or2b_1
*I *261:A1 I *D sky130_fd_sc_hd__o21a_1
*I *260:A1 I *D sky130_fd_sc_hd__a21oi_1
*I *265:A2 I *D sky130_fd_sc_hd__a31oi_1
*I *279:Q O *D sky130_fd_sc_hd__dfxtp_1
*CAP
1 *266:C 0
2 *249:B_N 8.93966e-05
3 *262:A1 0.000428793
4 *263:A2 0
5 *248:A 0
6 *261:A1 0.000391722
7 *260:A1 0
8 *265:A2 0.000370198
9 *279:Q 2.30556e-05
10 *62:96 0.000325916
11 *62:84 0.000370257
12 *62:59 0.000290843
13 *62:51 0.000471306
14 *62:47 0.000871712
15 *62:43 0.000519635
16 *62:14 0.000567131
17 *62:10 0.000731276
18 *62:6 0.000289119
19 *249:B_N *63:35 0.000100486
20 *262:A1 *262:B1 0.00032522
21 *262:A1 *63:14 0.000133658
22 *265:A2 *77:20 0.00049008
23 *265:A2 *88:47 2.14712e-05
24 *62:47 *63:14 6.15719e-05
25 *62:51 *63:6 2.64616e-05
26 *62:51 *63:21 0.000181453
27 *62:51 *63:57 6.17437e-06
28 *62:59 *249:A 9.47303e-05
29 *62:59 *80:10 3.96108e-05
30 *62:84 *77:6 5.56279e-05
31 *62:84 *77:35 0.000129736
32 *62:96 *63:35 3.6608e-05
33 *62:96 *74:12 0.000222478
34 *62:96 *77:20 2.94365e-05
35 *62:96 *88:110 5.71002e-06
36 *272:B *249:B_N 5.5792e-05
37 *278:D *261:A1 1.79713e-05
38 *15:10 *261:A1 9.64943e-05
39 *17:10 *62:47 0.000139713
40 *48:10 *262:A1 2.18712e-05
41 *49:10 *62:51 0.000359533
42 *54:52 *249:B_N 3.3849e-05
43 *58:23 *62:47 8.42697e-05
44 *60:16 *261:A1 2.98364e-05
45 *60:44 *261:A1 0.000140139
46 *61:26 *62:10 0.000100318
47 *61:26 *62:14 5.50587e-05
48 *61:26 *62:43 4.21048e-05
49 *61:33 *62:43 5.56356e-05
50 *61:40 *62:43 0.000146822
51 *61:40 *62:84 0.000255905
52 *61:44 *62:84 2.1819e-05
53 *61:44 *62:96 4.67488e-05
54 *61:52 *62:51 0.000100061
*RES
1 *279:Q *62:6 23.4971 
2 *62:6 *62:10 17.5271 
3 *62:10 *62:14 18.6664 
4 *62:14 *265:A2 29.235 
5 *62:14 *260:A1 23 
6 *62:10 *261:A1 45.3121 
7 *62:6 *62:43 2.52714 
8 *62:43 *62:47 20.4271 
9 *62:47 *62:51 20.3857 
10 *62:51 *62:59 35.2407 
11 *62:59 *248:A 23 
12 *62:51 *263:A2 23 
13 *62:47 *262:A1 44.96 
14 *62:43 *62:84 3.48 
15 *62:84 *62:96 49.205 
16 *62:96 *249:B_N 40.4236 
17 *62:84 *266:C 23 
*END

*D_NET *63 0.00734426
*CONN
*I *255:A I *D sky130_fd_sc_hd__nor3b_1
*I *246:A I *D sky130_fd_sc_hd__xor2_1
*I *263:A1 I *D sky130_fd_sc_hd__a31o_1
*I *266:B I *D sky130_fd_sc_hd__and4_1
*I *265:A1 I *D sky130_fd_sc_hd__a31oi_1
*I *295:A I *D sky130_fd_sc_hd__dlygate4sd3_1
*I *280:Q O *D sky130_fd_sc_hd__dfxtp_1
*CAP
1 *255:A 0
2 *246:A 0
3 *263:A1 0
4 *266:B 5.53065e-05
5 *265:A1 2.77218e-05
6 *295:A 0
7 *280:Q 6.92521e-05
8 *63:83 0.00055816
9 *63:64 0.000829117
10 *63:57 0.000333744
11 *63:35 0.000436215
12 *63:25 0.00061342
13 *63:21 0.000476978
14 *63:14 0.000293574
15 *63:6 0.000627397
16 *265:A1 *77:20 2.64616e-05
17 *266:B *266:A 5.5792e-05
18 *266:B *77:35 4.22275e-05
19 *63:25 *249:A 1.16455e-05
20 *63:25 *77:41 0.000246023
21 *63:25 *88:110 0.00034322
22 *63:35 *265:B1 4.78593e-05
23 *63:35 *74:12 1.13328e-05
24 *63:35 *77:20 5.86204e-05
25 *63:35 *88:110 0.000163256
26 *63:57 *88:110 5.11107e-05
27 *63:64 *88:110 1.21972e-05
28 *63:83 *246:B 1.83327e-05
29 *63:83 *257:B1 1.77718e-05
30 *63:83 *64:38 1.3523e-05
31 *63:83 *64:61 0.00016709
32 *63:83 *69:12 7.83309e-05
33 *63:83 *83:24 2.4867e-05
34 *243:A *266:B 9.79925e-05
35 *249:B_N *63:35 0.000100486
36 *255:B *63:83 5.3304e-05
37 *257:A2 *63:83 0.000179725
38 *262:A1 *63:14 0.000133658
39 *267:B *265:A1 5.3304e-05
40 *267:B *63:35 5.3304e-05
41 *272:B *63:35 4.50994e-05
42 *33:20 *63:83 8.48502e-06
43 *39:27 *63:83 5.56356e-05
44 *49:10 *63:6 1.46205e-05
45 *58:23 *63:14 0.000242738
46 *58:23 *63:35 6.12484e-05
47 *61:44 *266:B 5.3304e-05
48 *61:52 *63:21 0.000100061
49 *61:52 *63:25 5.33366e-05
50 *61:52 *63:35 1.51481e-05
51 *62:47 *63:14 6.15719e-05
52 *62:51 *63:6 2.64616e-05
53 *62:51 *63:21 0.000181453
54 *62:51 *63:57 6.17437e-06
55 *62:96 *63:35 3.6608e-05
*RES
1 *280:Q *63:6 24.0979 
2 *63:6 *63:14 35.8414 
3 *63:14 *295:A 23 
4 *63:6 *63:21 4.90929 
5 *63:21 *63:25 20.075 
6 *63:25 *63:35 37.0636 
7 *63:35 *265:A1 38.6214 
8 *63:25 *266:B 39.5743 
9 *63:21 *63:57 1.47071 
10 *63:57 *263:A1 23 
11 *63:57 *63:64 4.43286 
12 *63:64 *246:A 23 
13 *63:64 *63:83 39.7357 
14 *63:83 *255:A 23 
*END

*D_NET *64 0.00441311
*CONN
*I *245:B I *D sky130_fd_sc_hd__and2b_1
*I *290:A I *D sky130_fd_sc_hd__dlygate4sd3_1
*I *244:A_N I *D sky130_fd_sc_hd__and2b_1
*I *266:A I *D sky130_fd_sc_hd__and4_1
*I *281:Q O *D sky130_fd_sc_hd__dfxtp_1
*CAP
1 *245:B 0
2 *290:A 0
3 *244:A_N 0.000197407
4 *266:A 0.000222702
5 *281:Q 0.000179016
6 *64:61 0.000281978
7 *64:38 0.000392269
8 *64:12 0.000513183
9 *64:8 0.000382381
10 *244:A_N *69:12 2.52012e-05
11 *266:A *77:35 0.000180723
12 *64:8 *74:12 3.22051e-05
13 *64:12 *69:12 0.000206845
14 *64:61 *246:B 0.000272195
15 *64:61 *69:12 1.44001e-05
16 *64:61 *83:24 0.000149367
17 *243:A *266:A 0.000331879
18 *256:A1 *244:A_N 0.000268075
19 *256:A1 *266:A 9.11348e-06
20 *266:B *266:A 5.5792e-05
21 *35:12 *64:61 0.000194236
22 *37:14 *244:A_N 1.22093e-05
23 *37:14 *266:A 2.86718e-05
24 *37:14 *64:12 0.000168503
25 *38:10 *244:A_N 0.00011415
26 *63:83 *64:38 1.3523e-05
27 *63:83 *64:61 0.00016709
*RES
1 *281:Q *64:8 26.0243 
2 *64:8 *64:12 17.7861 
3 *64:12 *266:A 43.3754 
4 *64:12 *244:A_N 42.5882 
5 *64:8 *64:38 1.57429 
6 *64:38 *290:A 23 
7 *64:38 *64:61 37.6436 
8 *64:61 *245:B 23 
*END

*D_NET *65 0.0105807
*CONN
*I *270:A1 I *D sky130_fd_sc_hd__a21oi_1
*I *268:A1 I *D sky130_fd_sc_hd__a21oi_1
*I *271:B I *D sky130_fd_sc_hd__and3_1
*I *242:A2 I *D sky130_fd_sc_hd__a2111oi_1
*I *237:A I *D sky130_fd_sc_hd__or2b_1
*I *296:A I *D sky130_fd_sc_hd__dlygate4sd3_1
*I *282:Q O *D sky130_fd_sc_hd__dfxtp_1
*CAP
1 *270:A1 0.000271608
2 *268:A1 3.1554e-05
3 *271:B 0
4 *242:A2 0
5 *237:A 2.30556e-05
6 *296:A 0
7 *282:Q 0.000401017
8 *65:74 0.000472958
9 *65:56 0.000299454
10 *65:39 0.000865957
11 *65:35 0.00118532
12 *65:31 0.000947563
13 *65:24 0.000814323
14 *65:8 0.00135124
15 *65:24 *67:8 5.72975e-05
16 *65:35 *68:12 0.000122242
17 *65:39 *66:36 4.53082e-05
18 *65:39 *68:12 0.000312772
19 *65:39 *76:10 0.000139856
20 *65:39 *85:22 3.30398e-05
21 *65:56 *237:B_N 5.3304e-05
22 *65:56 *252:A1 0.000138747
23 *252:A2 *65:56 0.000244723
24 *268:A2 *270:A1 0.000588342
25 *270:A2 *270:A1 0.000218601
26 *275:B1 *65:39 5.25202e-05
27 *284:CLK *65:24 2.24022e-05
28 *285:CLK *65:24 1.46784e-05
29 *285:CLK *65:31 6.05544e-05
30 *285:D *65:35 4.58748e-05
31 *3:13 *268:A1 5.79559e-05
32 *3:13 *270:A1 1.71761e-05
33 *18:14 *65:24 2.89432e-06
34 *18:22 *65:24 0.000381092
35 *20:16 *65:24 0.000252635
36 *27:10 *65:56 9.41704e-05
37 *51:34 *270:A1 0.000127654
38 *52:6 *270:A1 0.000579078
39 *54:52 *65:39 0.000144501
40 *59:19 *65:24 1.12919e-05
41 *59:27 *65:8 9.79925e-05
*RES
1 *282:Q *65:8 42.9093 
2 *65:8 *65:24 31.2607 
3 *65:24 *296:A 23 
4 *65:8 *65:31 2.96214 
5 *65:31 *65:35 23.7207 
6 *65:35 *65:39 10.6471 
7 *65:39 *237:A 23.4971 
8 *65:39 *65:56 35.7586 
9 *65:56 *242:A2 23 
10 *65:35 *271:B 23 
11 *65:31 *65:74 17.6721 
12 *65:74 *268:A1 24.1186 
13 *65:74 *270:A1 35.0764 
*END

*D_NET *66 0.00344742
*CONN
*I *292:A I *D sky130_fd_sc_hd__dlygate4sd3_1
*I *271:A I *D sky130_fd_sc_hd__and3_1
*I *236:A I *D sky130_fd_sc_hd__or2b_1
*I *241:B1 I *D sky130_fd_sc_hd__a22o_1
*I *283:Q O *D sky130_fd_sc_hd__dfxtp_1
*CAP
1 *292:A 0
2 *271:A 0.000123224
3 *236:A 0
4 *241:B1 0.000136895
5 *283:Q 0.000213424
6 *66:36 0.000299591
7 *66:14 0.00035361
8 *66:8 0.000606507
9 *241:B1 *67:31 0.000247465
10 *271:A *68:12 9.7231e-05
11 *66:8 *294:A 5.79559e-05
12 *66:8 *68:27 9.41704e-05
13 *66:14 *67:31 0.000201465
14 *66:36 *68:12 6.49495e-05
15 *241:A2 *241:B1 4.97278e-06
16 *275:B1 *66:36 5.3304e-05
17 *283:D *66:8 3.18142e-05
18 *25:10 *241:B1 0.000139692
19 *52:18 *66:14 8.36198e-05
20 *52:18 *66:36 0.000267248
21 *54:29 *66:8 6.57815e-06
22 *56:8 *66:14 8.57485e-05
23 *56:8 *66:36 0.000232646
24 *65:39 *66:36 4.53082e-05
*RES
1 *283:Q *66:8 41.0036 
2 *66:8 *66:14 18.7286 
3 *66:14 *241:B1 26.8736 
4 *66:14 *236:A 23 
5 *66:8 *66:36 20.2407 
6 *66:36 *271:A 25.5479 
7 *66:36 *292:A 23 
*END

*D_NET *67 0.0067554
*CONN
*I *294:A I *D sky130_fd_sc_hd__dlygate4sd3_1
*I *241:A1 I *D sky130_fd_sc_hd__a22o_1
*I *252:A1 I *D sky130_fd_sc_hd__o21a_1
*I *238:A1 I *D sky130_fd_sc_hd__o2111ai_1
*I *273:A I *D sky130_fd_sc_hd__and2_1
*I *284:Q O *D sky130_fd_sc_hd__dfxtp_1
*CAP
1 *294:A 0.000280194
2 *241:A1 0
3 *252:A1 0.000216596
4 *238:A1 2.82818e-06
5 *273:A 0.000118698
6 *284:Q 8.39959e-05
7 *67:47 0.000440954
8 *67:43 0.000538275
9 *67:31 0.000801213
10 *67:19 0.000983186
11 *67:8 0.000421217
12 *252:A1 *237:B_N 5.3304e-05
13 *273:A *75:12 0
14 *67:31 *291:A 0.000100061
15 *67:31 *85:10 0.000334223
16 *67:31 *88:59 0.000224763
17 *67:31 *88:71 5.17096e-05
18 *241:A2 *67:31 7.97439e-06
19 *241:B1 *67:31 0.000247465
20 *252:A2 *238:A1 1.37048e-05
21 *252:A2 *252:A1 4.20451e-05
22 *252:A2 *67:47 4.91451e-05
23 *252:B1 *252:A1 0.000176457
24 *273:B *273:A 0.00015444
25 *273:B *294:A 0.000105787
26 *273:B *67:19 0.000312478
27 *283:D *294:A 0.000142458
28 *20:8 *67:43 0.000123085
29 *20:16 *67:8 1.30878e-05
30 *23:19 *67:43 5.51181e-06
31 *23:19 *67:47 0.000185221
32 *24:10 *252:A1 2.36931e-05
33 *24:10 *67:47 3.80964e-05
34 *25:10 *67:31 8.06804e-06
35 *65:24 *67:8 5.72975e-05
36 *65:56 *252:A1 0.000138747
37 *66:8 *294:A 5.79559e-05
38 *66:14 *67:31 0.000201465
*RES
1 *284:Q *67:8 39.0979 
2 *67:8 *273:A 40.2579 
3 *67:8 *67:19 4.37071 
4 *67:19 *67:31 27.2629 
5 *67:31 *67:43 35.1993 
6 *67:43 *67:47 19.5468 
7 *67:47 *238:A1 38.3211 
8 *67:47 *252:A1 43.1475 
9 *67:31 *241:A1 23 
10 *67:19 *294:A 43.5514 
*END

*D_NET *68 0.00463801
*CONN
*I *235:A I *D sky130_fd_sc_hd__or2b_1
*I *239:B I *D sky130_fd_sc_hd__and2b_1
*I *291:A I *D sky130_fd_sc_hd__dlygate4sd3_1
*I *285:Q O *D sky130_fd_sc_hd__dfxtp_1
*CAP
1 *235:A 0
2 *239:B 0
3 *291:A 0.000137468
4 *285:Q 0.000342867
5 *68:42 0.000362596
6 *68:27 0.000595711
7 *68:12 0.000713451
8 *291:A *88:59 5.79559e-05
9 *291:A *88:71 2.49002e-05
10 *68:27 *87:22 0.000146822
11 *68:42 *87:22 0.000386526
12 *241:A2 *68:42 1.08287e-05
13 *271:A *68:12 9.7231e-05
14 *271:C *68:12 1.80307e-05
15 *19:14 *68:12 0.00021036
16 *25:10 *68:42 0.000107232
17 *28:10 *68:42 0.000179473
18 *30:14 *68:42 0.000141352
19 *52:18 *291:A 1.223e-05
20 *52:18 *68:12 5.71002e-06
21 *54:29 *68:27 6.22884e-05
22 *56:8 *291:A 0.000110258
23 *56:8 *68:12 0.00022052
24 *65:35 *68:12 0.000122242
25 *65:39 *68:12 0.000312772
26 *66:8 *68:27 9.41704e-05
27 *66:36 *68:12 6.49495e-05
28 *67:31 *291:A 0.000100061
*RES
1 *285:Q *68:12 48.0257 
2 *68:12 *291:A 41.3557 
3 *68:12 *68:27 18.9564 
4 *68:27 *239:B 23 
5 *68:27 *68:42 37.0843 
6 *68:42 *235:A 23 
*END

*D_NET *69 0.00266531
*CONN
*I *251:A1 I *D sky130_fd_sc_hd__a211oi_1
*I *250:A1 I *D sky130_fd_sc_hd__o211ai_1
*I *297:X O *D sky130_fd_sc_hd__clkbuf_1
*CAP
1 *251:A1 0
2 *250:A1 0
3 *297:X 0
4 *69:25 0.000242654
5 *69:12 0.000713832
6 *69:4 0.000956486
7 *69:25 *82:10 8.50366e-05
8 *244:A_N *69:12 2.52012e-05
9 *4:13 *69:12 2.95526e-05
10 *4:13 *69:25 5.45541e-05
11 *32:33 *69:25 1.00084e-05
12 *33:28 *69:12 2.83509e-05
13 *33:28 *69:25 2.68258e-05
14 *35:12 *69:25 3.11916e-05
15 *37:14 *69:12 0.00016204
16 *63:83 *69:12 7.83309e-05
17 *64:12 *69:12 0.000206845
18 *64:61 *69:12 1.44001e-05
*RES
1 *297:X *69:4 23 
2 *69:4 *69:12 42.4493 
3 *69:12 *250:A1 23 
4 *69:4 *69:25 33.7286 
5 *69:25 *251:A1 23 
*END

*D_NET *70 0.000219222
*CONN
*I *307:A I *D sky130_fd_sc_hd__buf_2
*I *258:X O *D sky130_fd_sc_hd__o2bb2a_1
*CAP
1 *307:A 0.000109611
2 *258:X 0.000109611
*RES
1 *258:X *307:A 47.9471 
*END

*D_NET *71 0.00115929
*CONN
*I *257:B1 I *D sky130_fd_sc_hd__o31a_1
*I *306:X O *D sky130_fd_sc_hd__clkbuf_1
*CAP
1 *257:B1 0.000174609
2 *306:X 0.00012954
3 *71:8 0.000304149
4 *71:8 *72:21 4.16878e-06
5 *71:8 *83:24 0.00029191
6 *257:A2 *257:B1 1.21972e-05
7 *33:20 *257:B1 2.35413e-05
8 *43:10 *71:8 6.35028e-05
9 *46:10 *71:8 0.000137898
10 *63:83 *257:B1 1.77718e-05
*RES
1 *306:X *71:8 42.0186 
2 *71:8 *257:B1 40.4236 
*END

*D_NET *72 0.000922417
*CONN
*I *258:A1_N I *D sky130_fd_sc_hd__o2bb2a_1
*I *306:A I *D sky130_fd_sc_hd__clkbuf_1
*I *308:X O *D sky130_fd_sc_hd__clkbuf_1
*CAP
1 *258:A1_N 0
2 *306:A 9.96168e-05
3 *308:X 0
4 *72:21 0.00013174
5 *72:4 0.000231357
6 *258:A2_N *72:21 4.67488e-05
7 *33:14 *72:21 0.000165231
8 *36:14 *306:A 5.3304e-05
9 *39:27 *72:21 4.67488e-05
10 *43:10 *72:21 0.000137744
11 *46:10 *72:21 5.75756e-06
12 *71:8 *72:21 4.16878e-06
*RES
1 *308:X *72:4 23 
2 *72:4 *306:A 24.8229 
3 *72:4 *72:21 33.3713 
4 *72:21 *258:A1_N 23 
*END

*D_NET *73 0.00396071
*CONN
*I *262:A2 I *D sky130_fd_sc_hd__a21oi_1
*I *259:A I *D sky130_fd_sc_hd__nor2_1
*I *261:A2 I *D sky130_fd_sc_hd__o21a_1
*I *289:X O *D sky130_fd_sc_hd__dlygate4sd3_1
*CAP
1 *262:A2 2.26808e-05
2 *259:A 0
3 *261:A2 0
4 *289:X 0.00054828
5 *73:31 0.000199681
6 *73:16 0.000408177
7 *73:6 0.00113346
8 *73:16 *88:12 0.000226087
9 *73:31 *88:12 0.000185623
10 *280:D *73:6 9.77922e-06
11 *280:D *73:16 4.84129e-06
12 *14:14 *73:31 0.000269117
13 *15:10 *73:16 8.3864e-06
14 *48:10 *262:A2 3.22051e-05
15 *48:10 *73:31 0.000139428
16 *49:10 *73:6 0.000761672
17 *60:8 *73:31 1.12919e-05
*RES
1 *289:X *73:6 31.7207 
2 *73:6 *73:16 36.5871 
3 *73:16 *261:A2 23 
4 *73:6 *73:31 35.0543 
5 *73:31 *259:A 23 
6 *73:31 *262:A2 23.6214 
*END

*D_NET *74 0.00200801
*CONN
*I *265:B1 I *D sky130_fd_sc_hd__a31oi_1
*I *290:X O *D sky130_fd_sc_hd__dlygate4sd3_1
*CAP
1 *265:B1 9.13845e-05
2 *290:X 0.00055211
3 *74:12 0.000643495
4 *74:12 *77:20 0
5 *74:12 *77:35 0.000175903
6 *267:B *265:B1 9.75336e-06
7 *19:14 *74:12 3.11498e-05
8 *53:10 *74:12 4.2812e-06
9 *54:52 *265:B1 0
10 *61:26 *265:B1 0
11 *61:52 *74:12 0.000186054
12 *62:96 *74:12 0.000222478
13 *63:35 *265:B1 4.78593e-05
14 *63:35 *74:12 1.13328e-05
15 *64:8 *74:12 3.22051e-05
*RES
1 *290:X *74:12 48.1293 
2 *74:12 *265:B1 39.74 
*END

*D_NET *75 0.00298147
*CONN
*I *276:A1 I *D sky130_fd_sc_hd__a21oi_1
*I *277:A1 I *D sky130_fd_sc_hd__o21a_1
*I *291:X O *D sky130_fd_sc_hd__dlygate4sd3_1
*CAP
1 *276:A1 0
2 *277:A1 0
3 *291:X 0
4 *75:25 0.0005825
5 *75:12 0.000576564
6 *75:4 0.00115906
7 *75:12 *88:59 6.12208e-05
8 *75:25 *85:10 2.02872e-05
9 *75:25 *88:59 0.000124859
10 *75:25 *88:71 0.000356205
11 *273:A *75:12 0
12 *287:A *75:12 5.40241e-05
13 *287:A *75:25 4.67488e-05
14 *21:8 *75:12 0
*RES
1 *291:X *75:4 23 
2 *75:4 *75:12 38.0786 
3 *75:12 *277:A1 23 
4 *75:4 *75:25 38.4929 
5 *75:25 *276:A1 23 
*END

*D_NET *76 0.000750631
*CONN
*I *270:B1 I *D sky130_fd_sc_hd__a21oi_1
*I *292:X O *D sky130_fd_sc_hd__dlygate4sd3_1
*CAP
1 *270:B1 0
2 *292:X 0.000200297
3 *76:10 0.000200297
4 *19:14 *76:10 2.44742e-05
5 *52:18 *76:10 8.36198e-05
6 *53:10 *76:10 6.43792e-05
7 *54:52 *76:10 3.7707e-05
8 *65:39 *76:10 0.000139856
*RES
1 *292:X *76:10 41.8321 
2 *76:10 *270:B1 38 
*END

*D_NET *77 0.00461019
*CONN
*I *263:A3 I *D sky130_fd_sc_hd__a31o_1
*I *260:A2 I *D sky130_fd_sc_hd__a21oi_1
*I *293:X O *D sky130_fd_sc_hd__dlygate4sd3_1
*CAP
1 *263:A3 0
2 *260:A2 0
3 *293:X 4.36424e-05
4 *77:41 8.96627e-05
5 *77:35 0.000684092
6 *77:20 0.000457172
7 *77:6 0.00109524
8 *77:20 *272:A 1.39899e-05
9 *77:20 *88:47 8.28495e-05
10 *77:35 *249:A 8.29264e-05
11 *77:41 *249:A 7.6774e-06
12 *265:A1 *77:20 2.64616e-05
13 *265:A2 *77:20 0.00049008
14 *266:A *77:35 0.000180723
15 *266:B *77:35 4.22275e-05
16 *267:B *77:20 2.46387e-05
17 *267:C *77:20 0.000102389
18 *53:10 *77:20 0
19 *58:23 *77:20 0.000128935
20 *61:26 *77:20 8.09875e-05
21 *61:44 *77:35 8.48502e-06
22 *61:52 *77:41 0.00027266
23 *62:84 *77:6 5.56279e-05
24 *62:84 *77:35 0.000129736
25 *62:96 *77:20 2.94365e-05
26 *63:25 *77:41 0.000246023
27 *63:35 *77:20 5.86204e-05
28 *74:12 *77:20 0
29 *74:12 *77:35 0.000175903
*RES
1 *293:X *77:6 23.6214 
2 *77:6 *77:20 41.4964 
3 *77:20 *260:A2 23 
4 *77:6 *77:35 38.1614 
5 *77:35 *77:41 33.6664 
6 *77:41 *263:A3 23 
*END

*D_NET *78 0.000594786
*CONN
*I *275:A1 I *D sky130_fd_sc_hd__o21a_1
*I *294:X O *D sky130_fd_sc_hd__dlygate4sd3_1
*CAP
1 *275:A1 0
2 *294:X 0.000155699
3 *78:10 0.000155699
4 *78:10 *85:22 3.54728e-05
5 *52:18 *78:10 1.41891e-05
6 *54:29 *78:10 0.000233726
*RES
1 *294:X *78:10 41.0036 
2 *78:10 *275:A1 38 
*END

*D_NET *79 0.000594116
*CONN
*I *262:B1 I *D sky130_fd_sc_hd__a21oi_1
*I *295:X O *D sky130_fd_sc_hd__dlygate4sd3_1
*CAP
1 *262:B1 0.000131992
2 *295:X 0.000131992
3 *262:A1 *262:B1 0.00032522
4 *48:10 *262:B1 4.91172e-06
*RES
1 *295:X *262:B1 49.9564 
*END

*D_NET *80 0.0022176
*CONN
*I *248:B_N I *D sky130_fd_sc_hd__or2b_1
*I *249:A I *D sky130_fd_sc_hd__or2b_1
*I *298:X O *D sky130_fd_sc_hd__clkbuf_1
*CAP
1 *248:B_N 0
2 *249:A 0.000487468
3 *298:X 0.000245239
4 *80:10 0.000732707
5 *249:A *88:110 0.000496374
6 *298:A *80:10 1.92253e-05
7 *62:59 *249:A 9.47303e-05
8 *62:59 *80:10 3.96108e-05
9 *63:25 *249:A 1.16455e-05
10 *77:35 *249:A 8.29264e-05
11 *77:41 *249:A 7.6774e-06
*RES
1 *298:X *80:10 41.8321 
2 *80:10 *249:A 48.3571 
3 *80:10 *248:B_N 38 
*END

*D_NET *81 0.000109898
*CONN
*I *269:A1 I *D sky130_fd_sc_hd__o21a_1
*I *296:X O *D sky130_fd_sc_hd__dlygate4sd3_1
*CAP
1 *269:A1 9.86826e-06
2 *296:X 9.86826e-06
3 *18:14 *269:A1 3.22051e-05
4 *20:16 *269:A1 5.79559e-05
*RES
1 *296:X *269:A1 46.6214 
*END

*D_NET *82 0.00315211
*CONN
*I *246:B I *D sky130_fd_sc_hd__xor2_1
*I *255:C_N I *D sky130_fd_sc_hd__nor3b_1
*I *299:X O *D sky130_fd_sc_hd__buf_1
*CAP
1 *246:B 0.000601384
2 *255:C_N 0.00015197
3 *299:X 0.000314992
4 *82:10 0.00106835
5 *82:10 *83:10 9.94233e-05
6 *247:B *82:10 0
7 *299:A *82:10 2.23467e-05
8 *32:33 *82:10 2.29977e-05
9 *35:12 *246:B 4.40422e-05
10 *35:12 *82:10 1.55195e-05
11 *36:8 *82:10 0.000210428
12 *36:14 *255:C_N 0.000132285
13 *36:14 *82:10 1.0092e-05
14 *39:27 *255:C_N 5.40241e-05
15 *40:10 *246:B 2.86997e-05
16 *63:83 *246:B 1.83327e-05
17 *64:61 *246:B 0.000272195
18 *69:25 *82:10 8.50366e-05
*RES
1 *299:X *82:10 44.8771 
2 *82:10 *255:C_N 41.0036 
3 *82:10 *246:B 46.1407 
*END

*D_NET *83 0.00374252
*CONN
*I *245:A_N I *D sky130_fd_sc_hd__and2b_1
*I *244:B I *D sky130_fd_sc_hd__and2b_1
*I *300:X O *D sky130_fd_sc_hd__clkbuf_1
*CAP
1 *245:A_N 7.08617e-05
2 *244:B 0
3 *300:X 0.000502118
4 *83:24 0.000583254
5 *83:10 0.00115623
6 *256:A1 *83:24 8.15864e-05
7 *299:A *83:10 2.95423e-05
8 *32:27 *83:24 1.54206e-05
9 *33:14 *83:24 2.70572e-05
10 *33:28 *83:10 0.000165547
11 *33:28 *83:24 0.000106938
12 *35:12 *245:A_N 2.95423e-05
13 *36:14 *83:24 7.61229e-06
14 *39:12 *83:24 1.44001e-05
15 *43:10 *83:24 1.41891e-05
16 *45:10 *83:24 0.000372653
17 *63:83 *83:24 2.4867e-05
18 *64:61 *83:24 0.000149367
19 *71:8 *83:24 0.00029191
20 *82:10 *83:10 9.94233e-05
*RES
1 *300:X *83:10 47.7564 
2 *83:10 *83:24 29.6657 
3 *83:24 *244:B 23 
4 *83:10 *245:A_N 39.1186 
*END

*D_NET *84 0.00282687
*CONN
*I *233:A I *D sky130_fd_sc_hd__inv_2
*I *237:B_N I *D sky130_fd_sc_hd__or2b_1
*I *301:X O *D sky130_fd_sc_hd__buf_1
*CAP
1 *233:A 0
2 *237:B_N 0.00027233
3 *301:X 0.000145349
4 *84:37 0.00048391
5 *84:12 0.00075624
6 *84:10 0.000145349
7 *84:37 *85:10 3.22003e-05
8 *84:37 *86:10 9.963e-05
9 *252:A1 *237:B_N 5.3304e-05
10 *252:A2 *237:B_N 2.93658e-05
11 *252:B1 *237:B_N 2.95526e-05
12 *301:A *84:10 1.71799e-05
13 *23:6 *84:37 5.68958e-05
14 *27:20 *237:B_N 1.21972e-05
15 *41:10 *237:B_N 0.00023353
16 *41:10 *84:37 0.000262857
17 *43:10 *237:B_N 0.000143675
18 *65:56 *237:B_N 5.3304e-05
*RES
1 *301:X *84:10 40.175 
2 *84:10 *84:12 15 
3 *84:12 *237:B_N 29.525 
4 *84:12 *84:37 40.2536 
5 *84:37 *233:A 23 
*END

*D_NET *85 0.00486658
*CONN
*I *236:B_N I *D sky130_fd_sc_hd__or2b_1
*I *240:A I *D sky130_fd_sc_hd__inv_2
*I *302:X O *D sky130_fd_sc_hd__buf_1
*CAP
1 *236:B_N 0
2 *240:A 0
3 *302:X 0.00074645
4 *85:30 0.000225053
5 *85:22 0.000735255
6 *85:10 0.00125665
7 *85:10 *88:71 5.56279e-05
8 *241:A2 *85:10 0.00010129
9 *275:B1 *85:22 0.000264757
10 *23:6 *85:10 0.000482895
11 *29:8 *85:30 0.00016524
12 *52:18 *85:22 0.000372682
13 *54:29 *85:22 5.44889e-06
14 *65:39 *85:22 3.30398e-05
15 *67:31 *85:10 0.000334223
16 *75:25 *85:10 2.02872e-05
17 *78:10 *85:22 3.54728e-05
18 *84:37 *85:10 3.22003e-05
*RES
1 *302:X *85:10 36.05 
2 *85:10 *85:22 39.5493 
3 *85:22 *85:30 34.4121 
4 *85:30 *240:A 23 
5 *85:10 *236:B_N 23 
*END

*D_NET *86 0.000972617
*CONN
*I *234:A I *D sky130_fd_sc_hd__inv_2
*I *303:X O *D sky130_fd_sc_hd__clkbuf_1
*CAP
1 *234:A 0
2 *303:X 0.000256766
3 *86:10 0.000256766
4 *302:A *86:10 3.50862e-06
5 *27:20 *86:10 1.24376e-05
6 *41:10 *86:10 0.000153226
7 *42:8 *86:10 0.000190283
8 *84:37 *86:10 9.963e-05
*RES
1 *303:X *86:10 43.6964 
2 *86:10 *234:A 38 
*END

*D_NET *87 0.00319776
*CONN
*I *235:B_N I *D sky130_fd_sc_hd__or2b_1
*I *239:A_N I *D sky130_fd_sc_hd__and2b_1
*I *304:X O *D sky130_fd_sc_hd__clkbuf_1
*CAP
1 *235:B_N 0
2 *239:A_N 0
3 *304:X 0.000436893
4 *87:22 0.000411443
5 *87:12 0.000411443
6 *87:10 0.000436893
7 *238:B1 *87:22 5.56279e-05
8 *241:A2 *87:22 5.56279e-05
9 *252:A2 *87:22 4.8612e-05
10 *23:6 *87:22 0.000272915
11 *23:19 *87:22 0.0001619
12 *24:10 *87:22 0.000145171
13 *25:10 *87:22 1.03972e-05
14 *27:10 *87:22 6.68162e-05
15 *28:10 *87:22 2.65505e-05
16 *30:14 *87:22 6.72291e-05
17 *54:29 *87:22 5.68958e-05
18 *68:27 *87:22 0.000146822
19 *68:42 *87:22 0.000386526
*RES
1 *304:X *87:10 43.3857 
2 *87:10 *87:12 15 
3 *87:12 *87:22 41.3514 
4 *87:22 *239:A_N 23 
5 *87:12 *235:B_N 23 
*END

*D_NET *88 0.0117084
*CONN
*I *267:A I *D sky130_fd_sc_hd__nor3_1
*I *263:B1 I *D sky130_fd_sc_hd__a31o_1
*I *272:A I *D sky130_fd_sc_hd__nor3_1
*I *274:A I *D sky130_fd_sc_hd__nor2_1
*I *276:B1 I *D sky130_fd_sc_hd__a21oi_1
*I *260:B1 I *D sky130_fd_sc_hd__a21oi_1
*I *268:B1 I *D sky130_fd_sc_hd__a21oi_1
*I *259:B I *D sky130_fd_sc_hd__nor2_1
*I *305:X O *D sky130_fd_sc_hd__clkbuf_2
*CAP
1 *267:A 0
2 *263:B1 0
3 *272:A 1.73702e-05
4 *274:A 0
5 *276:B1 0
6 *260:B1 0
7 *268:B1 0.000114027
8 *259:B 0
9 *305:X 0
10 *88:110 0.000801015
11 *88:87 0.00152514
12 *88:71 0.00023224
13 *88:59 0.00111038
14 *88:49 0.0015849
15 *88:47 0.000155083
16 *88:36 0.00027061
17 *88:23 0.000698545
18 *88:12 0.00054421
19 *88:4 0.0010132
20 *249:A *88:110 0.000496374
21 *256:A1 *88:110 0
22 *265:A2 *88:47 2.14712e-05
23 *276:A2 *88:71 5.56279e-05
24 *279:D *88:23 7.91569e-06
25 *287:A *88:59 0.000181794
26 *291:A *88:59 5.79559e-05
27 *291:A *88:71 2.49002e-05
28 *3:13 *88:12 0.000153769
29 *19:14 *272:A 2.75733e-06
30 *20:16 *88:71 3.22051e-05
31 *21:8 *88:59 0
32 *47:10 *88:12 0.000275954
33 *47:10 *88:36 6.12208e-05
34 *47:10 *88:47 7.51453e-06
35 *48:10 *88:12 0.000124033
36 *51:25 *88:59 0
37 *52:18 *88:71 7.00964e-05
38 *53:10 *88:110 2.08572e-05
39 *60:24 *88:23 1.92253e-05
40 *61:26 *88:47 6.9565e-05
41 *62:96 *88:110 5.71002e-06
42 *63:25 *88:110 0.00034322
43 *63:35 *88:110 0.000163256
44 *63:57 *88:110 5.11107e-05
45 *63:64 *88:110 1.21972e-05
46 *67:31 *88:59 0.000224763
47 *67:31 *88:71 5.17096e-05
48 *73:16 *88:12 0.000226087
49 *73:31 *88:12 0.000185623
50 *75:12 *88:59 6.12208e-05
51 *75:25 *88:59 0.000124859
52 *75:25 *88:71 0.000356205
53 *77:20 *272:A 1.39899e-05
54 *77:20 *88:47 8.28495e-05
55 *85:10 *88:71 5.56279e-05
*RES
1 *305:X *88:4 23 
2 *88:4 *88:12 44.21 
3 *88:12 *259:B 23 
4 *88:4 *88:23 21.2143 
5 *88:23 *268:B1 40.61 
6 *88:23 *88:36 17.0507 
7 *88:36 *260:B1 23 
8 *88:36 *88:47 3.99786 
9 *88:47 *88:49 15 
10 *88:49 *88:59 33.5186 
11 *88:59 *88:71 36.38 
12 *88:71 *276:B1 23 
13 *88:59 *274:A 23 
14 *88:49 *88:87 9.00053 
15 *88:87 *272:A 46.3211 
16 *88:87 *88:110 33.196 
17 *88:110 *263:B1 23 
18 *88:47 *267:A 23 
*END
