*SPEF "ieee 1481-1999"
*DESIGN "pwm_ctrl"
*DATE "17:02:44 Monday May 04, 2026"
*VENDOR "The OpenROAD Project"
*PROGRAM "OpenROAD"
*VERSION "b16bda7e82721d10566ff7e2b68f1ff0be9f9e38"
*DESIGN_FLOW "NAME_SCOPE LOCAL" "PIN_CAP NONE"
*DIVIDER /
*DELIMITER :
*BUS_DELIMITER []
*T_UNIT 1 NS
*C_UNIT 1 PF
*R_UNIT 1 OHM
*L_UNIT 1 HENRY

*NAME_MAP
*3 clk
*4 duty[0]
*5 duty[1]
*6 duty[2]
*7 duty[3]
*8 duty[4]
*9 duty[5]
*10 duty[6]
*11 duty[7]
*12 pwm_out
*13 rst
*14 _00_
*15 _01_
*16 _02_
*17 _03_
*18 _04_
*19 _05_
*20 _06_
*21 _07_
*22 _08_
*23 _09_
*24 _10_
*25 _11_
*26 _12_
*27 _13_
*28 _14_
*29 _15_
*30 _16_
*31 _17_
*32 _18_
*33 _19_
*34 _20_
*35 _21_
*36 _22_
*37 _23_
*38 _24_
*39 _25_
*40 _26_
*41 _27_
*42 _28_
*43 _29_
*44 _30_
*45 _31_
*46 _32_
*47 _33_
*48 _34_
*49 _35_
*50 _36_
*51 _37_
*52 _38_
*53 _39_
*54 _40_
*55 _41_
*56 _42_
*57 _43_
*58 clknet_0_clk
*59 clknet_1_0__leaf_clk
*60 clknet_1_1__leaf_clk
*61 counter\[0\]
*62 counter\[1\]
*63 counter\[2\]
*64 counter\[3\]
*65 counter\[4\]
*66 counter\[5\]
*67 counter\[6\]
*68 counter\[7\]
*69 net1
*70 net10
*71 net11
*72 net12
*73 net13
*74 net14
*75 net15
*76 net16
*77 net17
*78 net18
*79 net19
*80 net2
*81 net20
*82 net3
*83 net4
*84 net5
*85 net6
*86 net7
*87 net8
*88 net9
*89 FILLER_0_0_12
*90 FILLER_0_0_15
*91 FILLER_0_0_24
*92 FILLER_0_0_27
*93 FILLER_0_0_3
*94 FILLER_0_0_34
*95 FILLER_0_0_37
*96 FILLER_0_0_40
*97 FILLER_0_0_43
*98 FILLER_0_0_46
*99 FILLER_0_0_49
*100 FILLER_0_0_52
*101 FILLER_0_0_55
*102 FILLER_0_0_57
*103 FILLER_0_0_6
*104 FILLER_0_0_60
*105 FILLER_0_0_63
*106 FILLER_0_0_66
*107 FILLER_0_0_69
*108 FILLER_0_0_9
*109 FILLER_0_10_12
*110 FILLER_0_10_22
*111 FILLER_0_10_25
*112 FILLER_0_10_3
*113 FILLER_0_10_37
*114 FILLER_0_10_40
*115 FILLER_0_10_48
*116 FILLER_0_10_51
*117 FILLER_0_10_54
*118 FILLER_0_10_57
*119 FILLER_0_10_6
*120 FILLER_0_10_68
*121 FILLER_0_10_9
*122 FILLER_0_11_29
*123 FILLER_0_11_3
*124 FILLER_0_11_32
*125 FILLER_0_11_35
*126 FILLER_0_11_38
*127 FILLER_0_11_41
*128 FILLER_0_11_44
*129 FILLER_0_11_48
*130 FILLER_0_11_51
*131 FILLER_0_11_54
*132 FILLER_0_11_57
*133 FILLER_0_11_6
*134 FILLER_0_11_60
*135 FILLER_0_11_63
*136 FILLER_0_1_3
*137 FILLER_0_1_46
*138 FILLER_0_1_49
*139 FILLER_0_1_52
*140 FILLER_0_1_55
*141 FILLER_0_1_57
*142 FILLER_0_1_6
*143 FILLER_0_1_60
*144 FILLER_0_1_63
*145 FILLER_0_1_66
*146 FILLER_0_1_9
*147 FILLER_0_2_3
*148 FILLER_0_2_40
*149 FILLER_0_2_6
*150 FILLER_0_3_69
*151 FILLER_0_4_27
*152 FILLER_0_4_3
*153 FILLER_0_4_34
*154 FILLER_0_4_6
*155 FILLER_0_4_9
*156 FILLER_0_5_12
*157 FILLER_0_5_3
*158 FILLER_0_5_41
*159 FILLER_0_5_44
*160 FILLER_0_5_50
*161 FILLER_0_5_53
*162 FILLER_0_5_57
*163 FILLER_0_5_6
*164 FILLER_0_5_60
*165 FILLER_0_5_63
*166 FILLER_0_5_66
*167 FILLER_0_5_9
*168 FILLER_0_6_12
*169 FILLER_0_6_15
*170 FILLER_0_6_21
*171 FILLER_0_6_27
*172 FILLER_0_6_3
*173 FILLER_0_6_38
*174 FILLER_0_6_6
*175 FILLER_0_6_63
*176 FILLER_0_6_66
*177 FILLER_0_6_69
*178 FILLER_0_6_9
*179 FILLER_0_7_40
*180 FILLER_0_7_43
*181 FILLER_0_7_51
*182 FILLER_0_7_65
*183 FILLER_0_7_7
*184 FILLER_0_8_27
*185 FILLER_0_8_3
*186 FILLER_0_8_66
*187 FILLER_0_8_69
*188 FILLER_0_9_3
*189 FILLER_0_9_44
*190 FILLER_0_9_47
*191 FILLER_0_9_55
*192 FILLER_0_9_6
*193 FILLER_0_9_63
*194 FILLER_0_9_9
*195 PHY_EDGE_ROW_0_Left_12
*196 PHY_EDGE_ROW_0_Right_0
*197 PHY_EDGE_ROW_10_Left_22
*198 PHY_EDGE_ROW_10_Right_10
*199 PHY_EDGE_ROW_11_Left_23
*200 PHY_EDGE_ROW_11_Right_11
*201 PHY_EDGE_ROW_1_Left_13
*202 PHY_EDGE_ROW_1_Right_1
*203 PHY_EDGE_ROW_2_Left_14
*204 PHY_EDGE_ROW_2_Right_2
*205 PHY_EDGE_ROW_3_Left_15
*206 PHY_EDGE_ROW_3_Right_3
*207 PHY_EDGE_ROW_4_Left_16
*208 PHY_EDGE_ROW_4_Right_4
*209 PHY_EDGE_ROW_5_Left_17
*210 PHY_EDGE_ROW_5_Right_5
*211 PHY_EDGE_ROW_6_Left_18
*212 PHY_EDGE_ROW_6_Right_6
*213 PHY_EDGE_ROW_7_Left_19
*214 PHY_EDGE_ROW_7_Right_7
*215 PHY_EDGE_ROW_8_Left_20
*216 PHY_EDGE_ROW_8_Right_8
*217 PHY_EDGE_ROW_9_Left_21
*218 PHY_EDGE_ROW_9_Right_9
*219 TAP_TAPCELL_ROW_0_24
*220 TAP_TAPCELL_ROW_0_25
*221 TAP_TAPCELL_ROW_10_35
*222 TAP_TAPCELL_ROW_11_36
*223 TAP_TAPCELL_ROW_11_37
*224 TAP_TAPCELL_ROW_1_26
*225 TAP_TAPCELL_ROW_2_27
*226 TAP_TAPCELL_ROW_3_28
*227 TAP_TAPCELL_ROW_4_29
*228 TAP_TAPCELL_ROW_5_30
*229 TAP_TAPCELL_ROW_6_31
*230 TAP_TAPCELL_ROW_7_32
*231 TAP_TAPCELL_ROW_8_33
*232 TAP_TAPCELL_ROW_9_34
*233 _44_
*234 _45_
*235 _46_
*236 _47_
*237 _48_
*238 _49_
*239 _50_
*240 _51_
*241 _52_
*242 _53_
*243 _54_
*244 _55_
*245 _56_
*246 _57_
*247 _58_
*248 _59_
*249 _60_
*250 _61_
*251 _62_
*252 _63_
*253 _64_
*254 _65_
*255 _66_
*256 _67_
*257 _68_
*258 _69_
*259 _70_
*260 _71_
*261 _72_
*262 _73_
*263 _74_
*264 _75_
*265 _76_
*266 _77_
*267 _78_
*268 _79_
*269 _80_
*270 _81_
*271 _82_
*272 _83_
*273 _84_
*274 _85_
*275 _86_
*276 _87_
*277 _88_
*278 _89_
*279 _90_
*280 _91_
*281 _92_
*282 _93_
*283 _94_
*284 _95_
*285 _96_
*286 clkbuf_0_clk
*287 clkbuf_1_0__f_clk
*288 clkbuf_1_1__f_clk
*289 hold1
*290 hold2
*291 hold3
*292 hold4
*293 hold5
*294 hold6
*295 hold7
*296 hold8
*297 input1
*298 input2
*299 input3
*300 input4
*301 input5
*302 input6
*303 input7
*304 input8
*305 input9
*306 max_cap11
*307 output10
*308 wire12

*PORTS
clk I
duty[0] I
duty[1] I
duty[2] I
duty[3] I
duty[4] I
duty[5] I
duty[6] I
duty[7] I
pwm_out O
rst I

*D_NET *3 0.0020114
*CONN
*P clk I
*I *286:A I *D sky130_fd_sc_hd__clkbuf_16
*CAP
1 clk 0.00084699
2 *286:A 0.00084699
3 *286:A *259:B 0.000143808
4 *286:A *261:B1 2.21697e-05
5 *286:A *268:A1 4.89295e-05
6 *286:A *268:A2 4.89295e-05
7 *286:A *269:B1 9.77048e-06
8 *286:A *270:A1 1.53053e-05
9 *286:A *305:A 2.85068e-05
*RES
1 clk *286:A 15.6468 
*END

*D_NET *4 0.0023117
*CONN
*P duty[0] I
*I *297:A I *D sky130_fd_sc_hd__clkbuf_1
*CAP
1 duty[0] 0.000761023
2 *297:A 0.000761023
3 *297:A pwm_out 5.84682e-05
4 *297:A *247:A 0.000177882
5 *297:A *247:B 4.2534e-05
6 *297:A *250:A1 2.69217e-05
7 *297:A *251:A1 4.90227e-05
8 *297:A *251:A2 0.000205944
9 *297:A *258:A2_N 0.000184207
10 *297:A *299:A 0
11 *297:A *300:A 4.46709e-05
*RES
1 duty[0] *297:A 10.1977 
*END

*D_NET *5 0.000997026
*CONN
*P duty[1] I
*I *298:A I *D sky130_fd_sc_hd__clkbuf_1
*CAP
1 duty[1] 0.000489161
2 *298:A 0.000489161
3 *298:A *80:10 1.87038e-05
*RES
1 duty[1] *298:A 12.06 
*END

*D_NET *6 0.00097591
*CONN
*P duty[2] I
*I *299:A I *D sky130_fd_sc_hd__buf_1
*CAP
1 duty[2] 0.000442939
2 *299:A 0.000442939
3 *299:A *300:A 4.46709e-05
4 *299:A *82:10 1.84465e-05
5 *299:A *83:10 2.69153e-05
6 *297:A *299:A 0
*RES
1 duty[2] *299:A 6.23657 
*END

*D_NET *7 0.0008806
*CONN
*P duty[3] I
*I *300:A I *D sky130_fd_sc_hd__clkbuf_1
*CAP
1 duty[3] 0.000395629
2 *300:A 0.000395629
3 *297:A *300:A 4.46709e-05
4 *299:A *300:A 4.46709e-05
*RES
1 duty[3] *300:A 9.7587 
*END

*D_NET *8 0.000773196
*CONN
*P duty[4] I
*I *301:A I *D sky130_fd_sc_hd__buf_1
*CAP
1 duty[4] 0.000352218
2 *301:A 0.000352218
3 *301:A pwm_out 0
4 *301:A *303:A 4.92015e-05
5 *301:A *84:12 1.95588e-05
*RES
1 duty[4] *301:A 6.18003 
*END

*D_NET *9 0.000593095
*CONN
*P duty[5] I
*I *302:A I *D sky130_fd_sc_hd__buf_1
*CAP
1 duty[5] 0.000242599
2 *302:A 0.000242599
3 *302:A *234:A 3.75882e-06
4 *302:A *303:A 5.08145e-05
5 *302:A *304:A 5.33241e-05
*RES
1 duty[5] *302:A 4.90503 
*END

*D_NET *10 0.000694232
*CONN
*P duty[6] I
*I *303:A I *D sky130_fd_sc_hd__clkbuf_1
*CAP
1 duty[6] 0.000297108
2 *303:A 0.000297108
3 *301:A *303:A 4.92015e-05
4 *302:A *303:A 5.08145e-05
*RES
1 duty[6] *303:A 7.68697 
*END

*D_NET *11 0.000672581
*CONN
*P duty[7] I
*I *304:A I *D sky130_fd_sc_hd__clkbuf_1
*CAP
1 duty[7] 0.000309629
2 *304:A 0.000309629
3 *302:A *304:A 5.33241e-05
*RES
1 duty[7] *304:A 5.67003 
*END

*D_NET *12 0.000663135
*CONN
*P pwm_out O
*I *307:X O *D sky130_fd_sc_hd__buf_2
*CAP
1 pwm_out 0.000292231
2 *307:X 0.000292231
3 pwm_out *256:B1 2.02052e-05
4 *297:A pwm_out 5.84682e-05
5 *301:A pwm_out 0
*RES
1 *307:X pwm_out 4.9633 
*END

*D_NET *13 0.000590894
*CONN
*P rst I
*I *305:A I *D sky130_fd_sc_hd__clkbuf_2
*CAP
1 rst 0.000281194
2 *305:A 0.000281194
3 *286:A *305:A 2.85068e-05
*RES
1 rst *305:A 7.1793 
*END

*D_NET *14 0.00116915
*CONN
*I *278:D I *D sky130_fd_sc_hd__dfxtp_2
*I *259:Y O *D sky130_fd_sc_hd__nor2_1
*CAP
1 *278:D 0.000324045
2 *259:Y 0.000324045
3 *278:D *261:A1 1.50897e-05
4 *278:D *264:A 2.44112e-05
5 *278:D *279:CLK 1.23437e-05
6 *278:D *60:8 0.00010166
7 *278:D *60:12 0.000134756
8 *278:D *60:16 4.82319e-06
9 *278:D *73:31 0.000227979
*RES
1 *259:Y *278:D 13.0538 
*END

*D_NET *15 0.000840028
*CONN
*I *279:D I *D sky130_fd_sc_hd__dfxtp_1
*I *261:X O *D sky130_fd_sc_hd__o21a_1
*CAP
1 *279:D 0.000334276
2 *261:X 0.000334276
3 *279:D *261:A1 8.35068e-05
4 *279:D *261:A2 9.18708e-06
5 *279:D *279:CLK 7.01303e-05
6 *279:D *88:23 8.65254e-06
*RES
1 *261:X *279:D 11.5387 
*END

*D_NET *16 0.000357131
*CONN
*I *280:D I *D sky130_fd_sc_hd__dfxtp_1
*I *264:Y O *D sky130_fd_sc_hd__nor2_1
*CAP
1 *280:D 0.000110114
2 *264:Y 0.000110114
3 *280:D *261:A2 4.6368e-06
4 *280:D *264:B 0.000122793
5 *280:D *73:6 9.47267e-06
*RES
1 *264:Y *280:D 5.42 
*END

*D_NET *17 0.00114589
*CONN
*I *281:D I *D sky130_fd_sc_hd__dfxtp_1
*I *267:Y O *D sky130_fd_sc_hd__nor3_1
*CAP
1 *281:D 0.000273772
2 *267:Y 0.000273772
3 *281:D *267:B 0.000159702
4 *281:D *288:A 0.000258452
5 *281:D *51:10 6.59891e-05
6 *281:D *62:47 0.000114201
*RES
1 *267:Y *281:D 12.5288 
*END

*D_NET *18 0.00323152
*CONN
*I *282:D I *D sky130_fd_sc_hd__dfxtp_1
*I *269:X O *D sky130_fd_sc_hd__o21a_1
*CAP
1 *282:D 0.000774861
2 *269:X 0.000774861
3 *282:D *269:A1 2.86975e-05
4 *282:D *269:B1 4.77807e-05
5 *282:D *276:A2 3.12341e-05
6 *282:D *284:CLK 0.000187974
7 *282:D *284:D 0.000815128
8 *282:D *296:A 0.000311825
9 *282:D *59:19 0.000134462
10 *282:D *59:27 0.000124693
*RES
1 *269:X *282:D 23.3438 
*END

*D_NET *19 0.00215121
*CONN
*I *283:D I *D sky130_fd_sc_hd__dfxtp_1
*I *272:Y O *D sky130_fd_sc_hd__nor3_1
*CAP
1 *283:D 0.000687571
2 *272:Y 0.000687571
3 *283:D *265:B1 2.76117e-05
4 *283:D *269:A2 0
5 *283:D *270:B1 2.74056e-05
6 *283:D *272:A 2.99518e-06
7 *283:D *272:B 0.000105966
8 *283:D *272:C 9.97788e-06
9 *283:D *288:A 0
10 *283:D *294:A 0.00013019
11 *283:D *51:38 0
12 *283:D *54:31 0.000268138
13 *283:D *66:8 3.04704e-05
14 *283:D *68:12 0.000173317
*RES
1 *272:Y *283:D 19.4888 
*END

*D_NET *20 0.00356293
*CONN
*I *284:D I *D sky130_fd_sc_hd__dfxtp_1
*I *275:X O *D sky130_fd_sc_hd__o21a_1
*CAP
1 *284:D 0.000807647
2 *275:X 0.000807647
3 *284:D *238:C1 6.30875e-05
4 *284:D *238:D1 0.000113891
5 *284:D *241:B2 0.000298532
6 *284:D *269:A1 4.89295e-05
7 *284:D *269:A2 0.000189832
8 *284:D *276:A2 4.11508e-05
9 *284:D *276:B1 2.86975e-05
10 *284:D *296:A 0.000234569
11 *284:D *67:8 1.28131e-05
12 *284:D *67:47 0.000101007
13 *282:D *284:D 0.000815128
*RES
1 *275:X *284:D 25.7588 
*END

*D_NET *21 0.00124647
*CONN
*I *285:D I *D sky130_fd_sc_hd__dfxtp_1
*I *277:X O *D sky130_fd_sc_hd__o21a_1
*CAP
1 *285:D 0.000598477
2 *277:X 0.000598477
3 *285:D *277:A1 0
4 *285:D *65:35 4.95198e-05
5 *285:D *88:59 0
*RES
1 *277:X *285:D 15.9637 
*END

*D_NET *22 0.00059436
*CONN
*I *242:A1 I *D sky130_fd_sc_hd__a2111oi_1
*I *233:Y O *D sky130_fd_sc_hd__inv_2
*CAP
1 *242:A1 0.000145616
2 *233:Y 0.000145616
3 *242:A1 *252:B1 8.33066e-06
4 *242:A1 *254:A 9.12494e-06
5 *242:A1 *23:6 1.17641e-05
6 *242:A1 *24:10 0.000134625
7 *242:A1 *30:16 0.000139283
*RES
1 *233:Y *242:A1 9.975 
*END

*D_NET *23 0.00239762
*CONN
*I *252:A2 I *D sky130_fd_sc_hd__o21a_1
*I *238:A2 I *D sky130_fd_sc_hd__o2111ai_1
*I *241:A2 I *D sky130_fd_sc_hd__a22o_1
*I *234:Y O *D sky130_fd_sc_hd__inv_2
*CAP
1 *252:A2 0.000257226
2 *238:A2 0
3 *241:A2 3.29872e-05
4 *234:Y 8.07429e-05
5 *23:19 0.000315277
6 *23:6 0.000171781
7 *241:A2 *235:A 1.16854e-05
8 *241:A2 *239:A_N 4.77719e-05
9 *241:A2 *241:B1 4.71746e-06
10 *241:A2 *67:31 8.66466e-06
11 *241:A2 *85:10 8.58558e-05
12 *252:A2 *237:B_N 2.57814e-05
13 *252:A2 *238:A1 1.10474e-05
14 *252:A2 *238:C1 1.18171e-05
15 *252:A2 *239:A_N 4.03557e-05
16 *252:A2 *242:A2 0.000203079
17 *252:A2 *252:A1 3.84153e-05
18 *252:A2 *67:47 4.01988e-05
19 *23:6 *233:A 5.06989e-05
20 *23:6 *239:A_N 0.000232434
21 *23:6 *30:16 1.42674e-05
22 *23:6 *85:10 0.000409138
23 *23:19 *239:A_N 0.000133085
24 *23:19 *67:47 0.000158823
25 *242:A1 *23:6 1.17641e-05
*RES
1 *234:Y *23:6 5.5 
2 *23:6 *241:A2 2.755 
3 *23:6 *23:19 3.89 
4 *23:19 *238:A2 3.6 
5 *23:19 *252:A2 8.37 
*END

*D_NET *24 0.00157679
*CONN
*I *252:B1 I *D sky130_fd_sc_hd__o21a_1
*I *238:B1 I *D sky130_fd_sc_hd__o2111ai_1
*I *235:X O *D sky130_fd_sc_hd__or2b_1
*CAP
1 *252:B1 8.32114e-05
2 *238:B1 5.73003e-05
3 *235:X 0.00010458
4 *24:10 0.000245092
5 *238:B1 *239:A_N 4.77719e-05
6 *238:B1 *27:10 0.000231802
7 *238:B1 *28:10 0.000101704
8 *252:B1 *237:B_N 2.69217e-05
9 *252:B1 *252:A1 0.000144487
10 *252:B1 *254:A 6.66205e-05
11 *252:B1 *308:A 7.27704e-06
12 *24:10 *239:A_N 0.000122821
13 *24:10 *252:A1 2.23107e-05
14 *24:10 *30:16 0.000128943
15 *24:10 *67:47 4.29942e-05
16 *242:A1 *252:B1 8.33066e-06
17 *242:A1 *24:10 0.000134625
*RES
1 *235:X *24:10 6.885 
2 *24:10 *238:B1 5.775 
3 *24:10 *252:B1 5.94 
*END

*D_NET *25 0.000765115
*CONN
*I *238:C1 I *D sky130_fd_sc_hd__o2111ai_1
*I *236:X O *D sky130_fd_sc_hd__or2b_1
*CAP
1 *238:C1 0.000205344
2 *236:X 0.000205344
3 *238:C1 *235:A 8.90199e-05
4 *238:C1 *238:D1 5.12462e-05
5 *238:C1 *239:A_N 1.01155e-05
6 *238:C1 *241:B1 0.000120407
7 *238:C1 *67:31 8.73389e-06
8 *252:A2 *238:C1 1.18171e-05
9 *284:D *238:C1 6.30875e-05
*RES
1 *236:X *238:C1 10.83 
*END

*D_NET *26 0.000265635
*CONN
*I *238:D1 I *D sky130_fd_sc_hd__o2111ai_1
*I *237:X O *D sky130_fd_sc_hd__or2b_1
*CAP
1 *238:D1 5.02488e-05
2 *237:X 5.02488e-05
3 *238:C1 *238:D1 5.12462e-05
4 *284:D *238:D1 0.000113891
*RES
1 *237:X *238:D1 8.58 
*END

*D_NET *27 0.00170742
*CONN
*I *242:B1 I *D sky130_fd_sc_hd__a2111oi_1
*I *254:A I *D sky130_fd_sc_hd__and2_1
*I *238:Y O *D sky130_fd_sc_hd__o2111ai_1
*CAP
1 *242:B1 0
2 *254:A 0.000229314
3 *238:Y 0.000245886
4 *27:10 0.0004752
5 *254:A *234:A 1.08758e-05
6 *254:A *237:B_N 1.19928e-05
7 *254:A *253:A1 8.52499e-05
8 *254:A *254:B 4.77719e-05
9 *254:A *308:A 9.23578e-05
10 *27:10 *239:A_N 6.13283e-05
11 *27:10 *242:A2 8.23457e-05
12 *27:10 *253:B1 3.12916e-05
13 *27:10 *28:10 2.62602e-05
14 *238:B1 *27:10 0.000231802
15 *242:A1 *254:A 9.12494e-06
16 *252:B1 *254:A 6.66205e-05
*RES
1 *238:Y *27:10 6.22 
2 *27:10 *254:A 9.77 
3 *27:10 *242:B1 1.6 
*END

*D_NET *28 0.00141727
*CONN
*I *253:B1 I *D sky130_fd_sc_hd__a21oi_1
*I *242:C1 I *D sky130_fd_sc_hd__a2111oi_1
*I *239:X O *D sky130_fd_sc_hd__and2b_1
*CAP
1 *253:B1 0.000113039
2 *242:C1 0
3 *239:X 0.000351125
4 *28:10 0.000464164
5 *253:B1 *253:A2 0.00010094
6 *253:B1 *308:A 4.89362e-05
7 *28:10 *235:A 0.000155601
8 *28:10 *239:A_N 2.42043e-05
9 *238:B1 *28:10 0.000101704
10 *27:10 *253:B1 3.12916e-05
11 *27:10 *28:10 2.62602e-05
*RES
1 *239:X *28:10 6.655 
2 *28:10 *242:C1 1.6 
3 *28:10 *253:B1 3.955 
*END

*D_NET *29 0.00108263
*CONN
*I *241:B2 I *D sky130_fd_sc_hd__a22o_1
*I *240:Y O *D sky130_fd_sc_hd__inv_2
*CAP
1 *241:B2 0.000302636
2 *240:Y 0.000302636
3 *241:B2 *240:A 0.000134631
4 *241:B2 *54:31 4.4196e-05
5 *284:D *241:B2 0.000298532
*RES
1 *240:Y *241:B2 12.915 
*END

*D_NET *30 0.00133886
*CONN
*I *253:A2 I *D sky130_fd_sc_hd__a21oi_1
*I *242:D1 I *D sky130_fd_sc_hd__a2111oi_1
*I *241:X O *D sky130_fd_sc_hd__a22o_1
*CAP
1 *253:A2 0.000178903
2 *242:D1 0
3 *241:X 0.000203851
4 *30:16 0.000382754
5 *30:16 *235:A 0.000121036
6 *30:16 *239:A_N 6.14541e-05
7 *30:16 *254:B 7.42989e-06
8 *242:A1 *30:16 0.000139283
9 *253:B1 *253:A2 0.00010094
10 *23:6 *30:16 1.42674e-05
11 *24:10 *30:16 0.000128943
*RES
1 *241:X *30:16 10.31 
2 *30:16 *242:D1 1.6 
3 *30:16 *253:A2 4.495 
*END

*D_NET *31 0.00102868
*CONN
*I *308:A I *D sky130_fd_sc_hd__clkbuf_1
*I *242:Y O *D sky130_fd_sc_hd__a2111oi_1
*CAP
1 *308:A 0.000327112
2 *242:Y 0.000327112
3 *308:A *256:B1 4.77757e-05
4 *308:A *258:B1 0.000129314
5 *308:A *33:20 4.87939e-05
6 *252:B1 *308:A 7.27704e-06
7 *253:B1 *308:A 4.89362e-05
8 *254:A *308:A 9.23578e-05
*RES
1 *242:Y *308:A 13.56 
*END

*D_NET *32 0.00244222
*CONN
*I *251:A2 I *D sky130_fd_sc_hd__a211oi_1
*I *250:A2 I *D sky130_fd_sc_hd__o211ai_1
*I *243:Y O *D sky130_fd_sc_hd__inv_2
*CAP
1 *251:A2 0.000510003
2 *250:A2 0.000182434
3 *243:Y 0
4 *32:4 0.000692437
5 *250:A2 *243:A 7.36145e-05
6 *250:A2 *251:C1 1.06688e-05
7 *251:A2 *244:B 1.56043e-05
8 *251:A2 *247:A 0.000235783
9 *251:A2 *247:C 8.69836e-05
10 *251:A2 *251:A1 8.30853e-06
11 *251:A2 *251:C1 2.45737e-05
12 *251:A2 *258:A2_N 0.000273781
13 *251:A2 *258:B1 3.112e-05
14 *251:A2 *258:B2 6.90254e-05
15 *251:A2 *82:10 2.1939e-05
16 *297:A *251:A2 0.000205944
*RES
1 *243:Y *32:4 1.6 
2 *32:4 *250:A2 4.045 
3 *32:4 *251:A2 18.96 
*END

*D_NET *33 0.00331086
*CONN
*I *257:A1 I *D sky130_fd_sc_hd__o31a_1
*I *247:A I *D sky130_fd_sc_hd__or3_1
*I *244:X O *D sky130_fd_sc_hd__and2b_1
*CAP
1 *257:A1 0
2 *247:A 0.000294369
3 *244:X 0.000503684
4 *33:20 0.000798053
5 *247:A *244:B 0.000104371
6 *247:A *247:B 2.68526e-05
7 *247:A *250:A1 2.747e-05
8 *247:A *251:A1 2.61093e-05
9 *247:A *83:10 0.00013488
10 *33:20 *244:B 2.59161e-05
11 *33:20 *251:C1 0.000175596
12 *33:20 *255:A 8.34281e-06
13 *33:20 *255:B 5.83121e-06
14 *33:20 *256:A1 8.58558e-05
15 *33:20 *256:B1 0.000158552
16 *33:20 *257:A2 6.81824e-05
17 *33:20 *257:B1 2.28811e-05
18 *33:20 *258:A1_N 0.000134625
19 *33:20 *258:A2_N 9.10613e-05
20 *33:20 *258:B1 9.54456e-05
21 *33:20 *258:B2 6.0322e-05
22 *251:A2 *247:A 0.000235783
23 *297:A *247:A 0.000177882
24 *308:A *33:20 4.87939e-05
*RES
1 *244:X *33:20 15.305 
2 *33:20 *247:A 12.56 
3 *33:20 *257:A1 1.6 
*END

*D_NET *34 0.00111207
*CONN
*I *247:B I *D sky130_fd_sc_hd__or3_1
*I *255:B I *D sky130_fd_sc_hd__nor3b_1
*I *245:X O *D sky130_fd_sc_hd__and2b_1
*CAP
1 *247:B 0.000173029
2 *255:B 0.000130369
3 *245:X 7.48806e-06
4 *34:8 0.000310886
5 *247:B *247:C 0.000151346
6 *247:B *258:A2_N 2.79419e-05
7 *247:B *82:10 0
8 *255:B *251:C1 4.86483e-05
9 *255:B *255:A 4.66108e-05
10 *255:B *258:A2_N 0.00014053
11 *247:A *247:B 2.68526e-05
12 *297:A *247:B 4.2534e-05
13 *33:20 *255:B 5.83121e-06
*RES
1 *245:X *34:8 3.8325 
2 *34:8 *255:B 6.2625 
3 *34:8 *247:B 7.0875 
*END

*D_NET *35 0.00107222
*CONN
*I *247:C I *D sky130_fd_sc_hd__or3_1
*I *246:X O *D sky130_fd_sc_hd__xor2_1
*CAP
1 *247:C 0.000212294
2 *246:X 0.000212294
3 *247:C *245:A_N 2.69153e-05
4 *247:C *245:B 0.000172069
5 *247:C *246:B 4.33663e-05
6 *247:C *251:A1 3.03465e-05
7 *247:C *258:A2_N 0.000119873
8 *247:C *82:10 1.67309e-05
9 *247:B *247:C 0.000151346
10 *251:A2 *247:C 8.69836e-05
*RES
1 *246:X *247:C 12.66 
*END

*D_NET *36 0.00195607
*CONN
*I *251:B1 I *D sky130_fd_sc_hd__a211oi_1
*I *256:B1 I *D sky130_fd_sc_hd__a21oi_1
*I *247:X O *D sky130_fd_sc_hd__or3_1
*CAP
1 *251:B1 0
2 *256:B1 0.000556928
3 *247:X 7.4934e-05
4 *36:8 0.000631862
5 *256:B1 *244:B 6.72833e-06
6 *256:B1 *251:C1 7.03276e-05
7 *256:B1 *255:C_N 0.000109743
8 *256:B1 *306:A 4.66108e-05
9 *256:B1 *82:10 8.33066e-06
10 *36:8 *251:C1 5.34461e-05
11 *36:8 *82:10 0.000170621
12 pwm_out *256:B1 2.02052e-05
13 *308:A *256:B1 4.77757e-05
14 *33:20 *256:B1 0.000158552
*RES
1 *247:X *36:8 5.745 
2 *36:8 *256:B1 13.47 
3 *36:8 *251:B1 3.6 
*END

*D_NET *37 0.00189914
*CONN
*I *256:A1 I *D sky130_fd_sc_hd__a21oi_1
*I *250:B1 I *D sky130_fd_sc_hd__o211ai_1
*I *248:X O *D sky130_fd_sc_hd__or2b_1
*CAP
1 *256:A1 0.000232463
2 *250:B1 0
3 *248:X 0.000338806
4 *37:14 0.000571269
5 *256:A1 *244:A_N 0.000221697
6 *256:A1 *244:B 7.27003e-05
7 *256:A1 *250:C1 3.34671e-05
8 *256:A1 *263:B1 0
9 *256:A1 *266:A 7.61533e-06
10 *37:14 *244:A_N 1.16981e-05
11 *37:14 *250:A1 0.000152473
12 *37:14 *250:C1 8.30853e-06
13 *37:14 *266:A 2.4243e-05
14 *37:14 *64:12 0.00013854
15 *33:20 *256:A1 8.58558e-05
*RES
1 *248:X *37:14 10.32 
2 *37:14 *250:B1 3.6 
3 *37:14 *256:A1 8.625 
*END

*D_NET *38 0.000946046
*CONN
*I *250:C1 I *D sky130_fd_sc_hd__o211ai_1
*I *249:X O *D sky130_fd_sc_hd__or2b_1
*CAP
1 *250:C1 0.000328331
2 *249:X 0.000328331
3 *250:C1 *243:A 4.52104e-05
4 *250:C1 *244:A_N 9.87777e-05
5 *250:C1 *256:A2 2.12738e-05
6 *250:C1 *39:6 8.23457e-05
7 *256:A1 *250:C1 3.34671e-05
8 *37:14 *250:C1 8.30853e-06
*RES
1 *249:X *250:C1 15.8687 
*END

*D_NET *39 0.00264656
*CONN
*I *251:C1 I *D sky130_fd_sc_hd__a211oi_1
*I *256:A2 I *D sky130_fd_sc_hd__a21oi_1
*I *250:Y O *D sky130_fd_sc_hd__o211ai_1
*CAP
1 *251:C1 0.000650296
2 *256:A2 9.42394e-05
3 *250:Y 7.84966e-05
4 *39:6 0.000823032
5 *251:C1 *243:A 1.08758e-05
6 *251:C1 *255:A 4.77757e-05
7 *251:C1 *255:C_N 4.88478e-05
8 *251:C1 *258:A1_N 4.41506e-05
9 *251:C1 *258:A2_N 1.84966e-05
10 *251:C1 *258:B1 8.41384e-05
11 *256:A2 *244:B 1.56982e-05
12 *256:A2 *257:A3 4.87406e-05
13 *39:6 *243:A 0.000194891
14 *250:A2 *251:C1 1.06688e-05
15 *250:C1 *256:A2 2.12738e-05
16 *250:C1 *39:6 8.23457e-05
17 *251:A2 *251:C1 2.45737e-05
18 *255:B *251:C1 4.86483e-05
19 *256:B1 *251:C1 7.03276e-05
20 *33:20 *251:C1 0.000175596
21 *36:8 *251:C1 5.34461e-05
*RES
1 *250:Y *39:6 3.43 
2 *39:6 *256:A2 7.49 
3 *39:6 *251:C1 19.53 
*END

*D_NET *40 0.00165146
*CONN
*I *258:A2_N I *D sky130_fd_sc_hd__o2bb2a_1
*I *251:Y O *D sky130_fd_sc_hd__a211oi_1
*CAP
1 *258:A2_N 0.000360075
2 *251:Y 0.000360075
3 *258:A2_N *246:B 3.12683e-05
4 *258:A2_N *258:A1_N 4.41506e-05
5 *247:B *258:A2_N 2.79419e-05
6 *247:C *258:A2_N 0.000119873
7 *251:A2 *258:A2_N 0.000273781
8 *251:C1 *258:A2_N 1.84966e-05
9 *255:B *258:A2_N 0.00014053
10 *297:A *258:A2_N 0.000184207
11 *33:20 *258:A2_N 9.10613e-05
*RES
1 *251:Y *258:A2_N 15.135 
*END

*D_NET *41 0.000941149
*CONN
*I *253:A1 I *D sky130_fd_sc_hd__a21oi_1
*I *252:X O *D sky130_fd_sc_hd__o21a_1
*CAP
1 *253:A1 0.000123655
2 *252:X 0.000123655
3 *253:A1 *233:A 0.000215429
4 *253:A1 *234:A 0.000126636
5 *253:A1 *237:B_N 0.000197833
6 *253:A1 *254:B 6.86929e-05
7 *254:A *253:A1 8.52499e-05
*RES
1 *252:X *253:A1 11.52 
*END

*D_NET *42 0.000521762
*CONN
*I *254:B I *D sky130_fd_sc_hd__and2_1
*I *253:Y O *D sky130_fd_sc_hd__a21oi_1
*CAP
1 *254:B 0.000121073
2 *253:Y 0.000121073
3 *254:B *234:A 0.000155721
4 *253:A1 *254:B 6.86929e-05
5 *254:A *254:B 4.77719e-05
6 *30:16 *254:B 7.42989e-06
*RES
1 *253:Y *254:B 10.05 
*END

*D_NET *43 0.00132136
*CONN
*I *258:B1 I *D sky130_fd_sc_hd__o2bb2a_1
*I *254:X O *D sky130_fd_sc_hd__and2_1
*CAP
1 *258:B1 0.00033525
2 *254:X 0.00033525
3 *258:B1 *237:B_N 0.000122197
4 *258:B1 *244:B 1.56261e-05
5 *258:B1 *257:B1 6.04287e-05
6 *258:B1 *258:A1_N 0.000112589
7 *251:A2 *258:B1 3.112e-05
8 *251:C1 *258:B1 8.41384e-05
9 *308:A *258:B1 0.000129314
10 *33:20 *258:B1 9.54456e-05
*RES
1 *254:X *258:B1 14.595 
*END

*D_NET *44 0.00032814
*CONN
*I *257:A2 I *D sky130_fd_sc_hd__o31a_1
*I *255:Y O *D sky130_fd_sc_hd__nor3b_1
*CAP
1 *257:A2 4.61782e-05
2 *255:Y 4.61782e-05
3 *257:A2 *255:A 0.000155608
4 *257:A2 *257:B1 1.19928e-05
5 *33:20 *257:A2 6.81824e-05
*RES
1 *255:Y *257:A2 4.685 
*END

*D_NET *45 0.00076731
*CONN
*I *257:A3 I *D sky130_fd_sc_hd__o31a_1
*I *256:Y O *D sky130_fd_sc_hd__a21oi_1
*CAP
1 *257:A3 0.000205236
2 *256:Y 0.000205236
3 *257:A3 *244:B 0.000308097
4 *256:A2 *257:A3 4.87406e-05
*RES
1 *256:Y *257:A3 11.07 
*END

*D_NET *46 0.000398474
*CONN
*I *258:B2 I *D sky130_fd_sc_hd__o2bb2a_1
*I *257:X O *D sky130_fd_sc_hd__o31a_1
*CAP
1 *258:B2 7.55505e-05
2 *257:X 7.55505e-05
3 *258:B2 *257:B1 0.000112714
4 *258:B2 *258:A1_N 5.31158e-06
5 *251:A2 *258:B2 6.90254e-05
6 *33:20 *258:B2 6.0322e-05
*RES
1 *257:X *258:B2 9.03 
*END

*D_NET *47 0.00130091
*CONN
*I *261:B1 I *D sky130_fd_sc_hd__o21a_1
*I *260:Y O *D sky130_fd_sc_hd__a21oi_1
*CAP
1 *261:B1 0.000494905
2 *260:Y 0.000494905
3 *261:B1 *259:B 0.000223398
4 *261:B1 *88:36 5.88353e-05
5 *261:B1 *88:47 6.69608e-06
6 *286:A *261:B1 2.21697e-05
*RES
1 *260:Y *261:B1 14.52 
*END

*D_NET *48 0.00101463
*CONN
*I *264:A I *D sky130_fd_sc_hd__nor2_1
*I *262:Y O *D sky130_fd_sc_hd__a21oi_1
*CAP
1 *264:A 0.00034053
2 *262:Y 0.00034053
3 *264:A *259:B 0.000112135
4 *264:A *262:A1 2.36673e-05
5 *264:A *262:A2 2.86975e-05
6 *264:A *262:B1 4.7072e-06
7 *264:A *60:8 2.18822e-05
8 *264:A *73:31 0.000118064
9 *278:D *264:A 2.44112e-05
*RES
1 *262:Y *264:A 13.5 
*END

*D_NET *49 0.00186748
*CONN
*I *264:B I *D sky130_fd_sc_hd__nor2_1
*I *263:X O *D sky130_fd_sc_hd__a31o_1
*CAP
1 *264:B 0.000389347
2 *263:X 0.000389347
3 *264:B *62:51 0.000306809
4 *264:B *63:6 1.41095e-05
5 *264:B *73:6 0.000645076
6 *280:D *264:B 0.000122793
*RES
1 *263:X *264:B 12.65 
*END

*D_NET *50 0.000655314
*CONN
*I *267:B I *D sky130_fd_sc_hd__nor3_1
*I *265:Y O *D sky130_fd_sc_hd__a31oi_1
*CAP
1 *267:B 0.000104774
2 *265:Y 0.000104774
3 *267:B *260:A2 2.382e-05
4 *267:B *265:A1 9.32216e-05
5 *267:B *265:A3 0.00016031
6 *267:B *265:B1 8.71386e-06
7 *281:D *267:B 0.000159702
*RES
1 *265:Y *267:B 6.065 
*END

*D_NET *51 0.00505858
*CONN
*I *270:A2 I *D sky130_fd_sc_hd__a21oi_1
*I *271:C I *D sky130_fd_sc_hd__and3_1
*I *269:A2 I *D sky130_fd_sc_hd__o21a_1
*I *268:A2 I *D sky130_fd_sc_hd__a21oi_1
*I *267:C I *D sky130_fd_sc_hd__nor3_1
*I *266:X O *D sky130_fd_sc_hd__and4_1
*CAP
1 *270:A2 8.3719e-05
2 *271:C 4.7156e-05
3 *269:A2 0.000519814
4 *268:A2 0.00018959
5 *267:C 6.5548e-05
6 *266:X 0.000221505
7 *51:38 0.00070617
8 *51:34 0.000280744
9 *51:25 0.000350967
10 *51:10 0.000390605
11 *267:C *260:A2 8.64421e-05
12 *267:C *265:A3 8.64421e-05
13 *268:A2 *270:A1 0.000497335
14 *269:A2 *273:B 0.000196089
15 *269:A2 *274:B 0
16 *269:A2 *287:A 0.000325852
17 *270:A2 *270:A1 0.000185793
18 *271:C *68:12 1.77285e-05
19 *51:10 *288:A 3.06306e-05
20 *51:10 *61:40 5.48747e-05
21 *51:25 *287:A 2.85837e-05
22 *51:25 *288:A 5.05421e-05
23 *51:25 *88:59 0
24 *51:34 *270:A1 0.000109612
25 *51:38 *287:A 0.000228085
26 *281:D *51:10 6.59891e-05
27 *283:D *269:A2 0
28 *283:D *51:38 0
29 *284:D *269:A2 0.000189832
30 *286:A *268:A2 4.89295e-05
*RES
1 *266:X *51:10 6.72 
2 *51:10 *267:C 4.845 
3 *51:10 *51:25 3.89 
4 *51:25 *268:A2 6.19 
5 *51:25 *51:34 1.14 
6 *51:34 *51:38 4.91 
7 *51:38 *269:A2 13.1025 
8 *51:38 *271:C 4.11 
9 *51:34 *270:A2 3.43 
*END

*D_NET *52 0.00379198
*CONN
*I *269:B1 I *D sky130_fd_sc_hd__o21a_1
*I *268:Y O *D sky130_fd_sc_hd__a21oi_1
*CAP
1 *269:B1 0.00107473
2 *268:Y 0.00107473
3 *269:B1 *240:A 0.000303442
4 *269:B1 *270:A1 0.000521155
5 *269:B1 *270:B1 6.90254e-05
6 *269:B1 *272:B 4.77769e-05
7 *269:B1 *272:C 0.000110785
8 *269:B1 *274:B 5.97306e-05
9 *269:B1 *275:A1 1.56261e-05
10 *269:B1 *276:A2 4.66108e-05
11 *269:B1 *276:B1 6.76478e-05
12 *269:B1 *291:A 1.38283e-05
13 *269:B1 *55:17 3.57779e-05
14 *269:B1 *66:14 6.90254e-05
15 *269:B1 *66:36 0.000217988
16 *269:B1 *68:12 6.54361e-06
17 *282:D *269:B1 4.77807e-05
18 *286:A *269:B1 9.77048e-06
*RES
1 *268:Y *269:B1 25.47 
*END

*D_NET *53 0.000797045
*CONN
*I *272:B I *D sky130_fd_sc_hd__nor3_1
*I *270:Y O *D sky130_fd_sc_hd__a21oi_1
*CAP
1 *272:B 0.000181062
2 *270:Y 0.000181062
3 *272:B *249:B_N 4.77769e-05
4 *272:B *260:A2 0
5 *272:B *263:B1 2.0189e-05
6 *272:B *265:A1 4.12086e-05
7 *272:B *265:B1 4.1652e-06
8 *272:B *270:B1 5.20249e-05
9 *272:B *272:C 0.000115812
10 *269:B1 *272:B 4.77769e-05
11 *283:D *272:B 0.000105966
*RES
1 *270:Y *272:B 11.445 
*END

*D_NET *54 0.00432779
*CONN
*I *272:C I *D sky130_fd_sc_hd__nor3_1
*I *275:A2 I *D sky130_fd_sc_hd__o21a_1
*I *273:B I *D sky130_fd_sc_hd__and2_1
*I *271:X O *D sky130_fd_sc_hd__and3_1
*CAP
1 *272:C 0.000361211
2 *275:A2 0
3 *273:B 0.000273942
4 *271:X 7.31094e-05
5 *54:31 0.000735589
6 *54:10 0.000721429
7 *272:C *249:B_N 3.29447e-05
8 *272:C *265:B1 0
9 *272:C *270:B1 3.54295e-05
10 *272:C *275:B1 7.31372e-05
11 *272:C *65:39 0.000122801
12 *273:B *273:A 0.000129425
13 *273:B *277:B1 4.82919e-05
14 *273:B *287:A 0.000216059
15 *273:B *294:A 8.89217e-05
16 *273:B *55:17 0
17 *273:B *67:19 0.000257218
18 *54:10 *287:A 9.23635e-05
19 *54:31 *239:A_N 5.06989e-05
20 *54:31 *240:A 6.23541e-06
21 *54:31 *275:A1 0.00019578
22 *54:31 *66:8 7.10593e-06
23 *54:31 *68:27 6.11009e-05
24 *241:B2 *54:31 4.4196e-05
25 *269:A2 *273:B 0.000196089
26 *269:B1 *272:C 0.000110785
27 *272:B *272:C 0.000115812
28 *283:D *272:C 9.97788e-06
29 *283:D *54:31 0.000268138
*RES
1 *271:X *54:10 5.175 
2 *54:10 *273:B 10.785 
3 *54:10 *54:31 12.915 
4 *54:31 *275:A2 1.6 
5 *54:31 *272:C 13.07 
*END

*D_NET *55 0.00236018
*CONN
*I *274:B I *D sky130_fd_sc_hd__nor2_1
*I *276:A2 I *D sky130_fd_sc_hd__a21oi_1
*I *277:A2 I *D sky130_fd_sc_hd__o21a_1
*I *273:X O *D sky130_fd_sc_hd__and2_1
*CAP
1 *274:B 7.86085e-05
2 *276:A2 0.00016142
3 *277:A2 0.000299876
4 *273:X 0
5 *55:17 0.000548628
6 *55:4 0.000608475
7 *276:A2 *276:B1 4.77719e-05
8 *277:A2 *277:B1 0.000241904
9 *55:17 *277:B1 0.00015899
10 *269:A2 *274:B 0
11 *269:B1 *274:B 5.97306e-05
12 *269:B1 *276:A2 4.66108e-05
13 *269:B1 *55:17 3.57779e-05
14 *273:B *55:17 0
15 *282:D *276:A2 3.12341e-05
16 *284:D *276:A2 4.11508e-05
*RES
1 *273:X *55:4 1.6 
2 *55:4 *277:A2 5.5 
3 *55:4 *55:17 6.32 
4 *55:17 *276:A2 6.495 
5 *55:17 *274:B 4.98 
*END

*D_NET *56 0.00134991
*CONN
*I *275:B1 I *D sky130_fd_sc_hd__o21a_1
*I *274:Y O *D sky130_fd_sc_hd__nor2_1
*CAP
1 *275:B1 0.000212237
2 *274:Y 0.000212237
3 *275:B1 *240:A 0.000225614
4 *275:B1 *291:A 9.05535e-05
5 *275:B1 *65:39 5.08242e-05
6 *275:B1 *66:14 7.03219e-05
7 *275:B1 *66:36 0.000236037
8 *275:B1 *68:12 0.000178952
9 *272:C *275:B1 7.31372e-05
*RES
1 *274:Y *275:B1 13.59 
*END

*D_NET *57 0.00142454
*CONN
*I *277:B1 I *D sky130_fd_sc_hd__o21a_1
*I *276:Y O *D sky130_fd_sc_hd__a21oi_1
*CAP
1 *277:B1 0.000487675
2 *276:Y 0.000487675
3 *273:B *277:B1 4.82919e-05
4 *277:A2 *277:B1 0.000241904
5 *55:17 *277:B1 0.00015899
*RES
1 *276:Y *277:B1 16.635 
*END

*D_NET *58 0.0038431
*CONN
*I *288:A I *D sky130_fd_sc_hd__clkbuf_16
*I *287:A I *D sky130_fd_sc_hd__clkbuf_16
*I *286:X O *D sky130_fd_sc_hd__clkbuf_16
*CAP
1 *288:A 0.000654311
2 *287:A 0.000302247
3 *286:X 0
4 *58:6 0.000956558
5 *287:A *276:A1 4.41506e-05
6 *287:A *277:A1 4.88478e-05
7 *287:A *88:59 0.000156754
8 *288:A *260:A2 0.000120357
9 *288:A *265:A1 5.0096e-05
10 *288:A *295:A 0.000197757
11 *288:A *62:47 8.14576e-05
12 *269:A2 *287:A 0.000325852
13 *273:B *287:A 0.000216059
14 *281:D *288:A 0.000258452
15 *283:D *288:A 0
16 *51:10 *288:A 3.06306e-05
17 *51:25 *287:A 2.85837e-05
18 *51:25 *288:A 5.05421e-05
19 *51:38 *287:A 0.000228085
20 *54:10 *287:A 9.23635e-05
*RES
1 *286:X *58:6 3.6 
2 *58:6 *287:A 12.075 
3 *58:6 *288:A 16.92 
*END

*D_NET *59 0.00166193
*CONN
*I *285:CLK I *D sky130_fd_sc_hd__dfxtp_1
*I *283:CLK I *D sky130_fd_sc_hd__dfxtp_1
*I *282:CLK I *D sky130_fd_sc_hd__dfxtp_1
*I *284:CLK I *D sky130_fd_sc_hd__dfxtp_1
*I *287:X O *D sky130_fd_sc_hd__clkbuf_16
*CAP
1 *285:CLK 8.51929e-05
2 *283:CLK 2.96408e-05
3 *282:CLK 0
4 *284:CLK 0.000143964
5 *287:X 0
6 *59:27 0.000192008
7 *59:19 0.000339833
8 *59:6 0.000236236
9 *284:CLK *296:A 2.14605e-05
10 *285:CLK *296:A 1.42807e-05
11 *285:CLK *65:31 5.72372e-05
12 *59:19 *296:A 1.08056e-05
13 *59:27 *65:8 8.41384e-05
14 *282:D *284:CLK 0.000187974
15 *282:D *59:19 0.000134462
16 *282:D *59:27 0.000124693
*RES
1 *287:X *59:6 3.6 
2 *59:6 *284:CLK 6.705 
3 *59:6 *59:19 1.89 
4 *59:19 *59:27 4.985 
5 *59:27 *282:CLK 1.6 
6 *59:27 *283:CLK 2.05 
7 *59:19 *285:CLK 5.235 
*END

*D_NET *60 0.00253025
*CONN
*I *280:CLK I *D sky130_fd_sc_hd__dfxtp_1
*I *281:CLK I *D sky130_fd_sc_hd__dfxtp_1
*I *278:CLK I *D sky130_fd_sc_hd__dfxtp_2
*I *279:CLK I *D sky130_fd_sc_hd__dfxtp_1
*I *288:X O *D sky130_fd_sc_hd__clkbuf_16
*CAP
1 *280:CLK 0
2 *281:CLK 0.000436118
3 *278:CLK 0
4 *279:CLK 0.000158283
5 *288:X 0.0001899
6 *60:16 0.000289364
7 *60:12 0.000648978
8 *60:8 0.000271679
9 *279:CLK *88:23 1.87038e-05
10 *281:CLK *261:A1 0.000128548
11 *60:8 *73:31 1.08056e-05
12 *60:16 *261:A1 3.22734e-05
13 *264:A *60:8 2.18822e-05
14 *278:D *279:CLK 1.23437e-05
15 *278:D *60:8 0.00010166
16 *278:D *60:12 0.000134756
17 *278:D *60:16 4.82319e-06
18 *279:D *279:CLK 7.01303e-05
*RES
1 *288:X *60:8 7.02 
2 *60:8 *60:12 3.635 
3 *60:12 *60:16 1.755 
4 *60:16 *279:CLK 8.195 
5 *60:16 *278:CLK 1.6 
6 *60:12 *281:CLK 12.2 
7 *60:8 *280:CLK 3.6 
*END

*D_NET *61 0.00445255
*CONN
*I *266:D I *D sky130_fd_sc_hd__and4_1
*I *243:A I *D sky130_fd_sc_hd__inv_2
*I *289:A I *D sky130_fd_sc_hd__dlygate4sd3_1
*I *293:A I *D sky130_fd_sc_hd__dlygate4sd3_1
*I *265:A3 I *D sky130_fd_sc_hd__a31oi_1
*I *278:Q O *D sky130_fd_sc_hd__dfxtp_2
*CAP
1 *266:D 0
2 *243:A 0.000255799
3 *289:A 0.000171756
4 *293:A 0
5 *265:A3 0.000266673
6 *278:Q 0.000109083
7 *61:44 0.000492005
8 *61:40 0.000188594
9 *61:33 0.000143366
10 *61:10 0.000394978
11 *243:A *266:A 0.000285531
12 *243:A *266:B 8.41384e-05
13 *265:A3 *260:A2 7.36329e-05
14 *265:A3 *265:B1 0
15 *265:A3 *62:10 8.52977e-05
16 *265:A3 *62:14 5.97443e-05
17 *265:A3 *62:43 3.6355e-05
18 *265:A3 *88:47 5.80663e-05
19 *289:A *263:A3 0.000221339
20 *289:A *265:A1 1.46781e-05
21 *289:A *265:B1 0.000153139
22 *289:A *62:51 8.52845e-05
23 *289:A *63:21 8.52845e-05
24 *289:A *63:25 5.08434e-05
25 *61:33 *62:43 4.77757e-05
26 *61:40 *62:43 0.000123955
27 *61:40 *62:84 0.000219757
28 *61:44 *249:B_N 4.41506e-05
29 *61:44 *263:A3 8.34281e-06
30 *61:44 *266:B 4.66108e-05
31 *61:44 *62:84 2.01504e-05
32 *250:A2 *243:A 7.36145e-05
33 *250:C1 *243:A 4.52104e-05
34 *251:C1 *243:A 1.08758e-05
35 *267:B *265:A3 0.00016031
36 *267:C *265:A3 8.64421e-05
37 *39:6 *243:A 0.000194891
38 *51:10 *61:40 5.48747e-05
*RES
1 *278:Q *61:10 6.98 
2 *61:10 *265:A3 11.975 
3 *61:10 *61:33 0.45 
4 *61:33 *293:A 1.6 
5 *61:33 *61:40 3.21 
6 *61:40 *61:44 1.5 
7 *61:44 *289:A 10.58 
8 *61:44 *243:A 8.635 
9 *61:40 *266:D 1.6 
*END

*D_NET *62 0.00776407
*CONN
*I *266:C I *D sky130_fd_sc_hd__and4_1
*I *249:B_N I *D sky130_fd_sc_hd__or2b_1
*I *262:A1 I *D sky130_fd_sc_hd__a21oi_1
*I *263:A2 I *D sky130_fd_sc_hd__a31o_1
*I *248:A I *D sky130_fd_sc_hd__or2b_1
*I *261:A1 I *D sky130_fd_sc_hd__o21a_1
*I *260:A1 I *D sky130_fd_sc_hd__a21oi_1
*I *265:A2 I *D sky130_fd_sc_hd__a31oi_1
*I *279:Q O *D sky130_fd_sc_hd__dfxtp_1
*CAP
1 *266:C 0
2 *249:B_N 0.000235103
3 *262:A1 0.000345044
4 *263:A2 0
5 *248:A 0.000231587
6 *261:A1 0.0003059
7 *260:A1 0
8 *265:A2 0.000307059
9 *279:Q 2.09808e-05
10 *62:84 0.000330777
11 *62:51 0.000360924
12 *62:47 0.000670151
13 *62:43 0.000391497
14 *62:14 0.00046262
15 *62:10 0.000580487
16 *62:6 0.000240061
17 *248:A *249:A 8.87378e-05
18 *248:A *80:10 3.68942e-05
19 *249:B_N *260:A2 3.24812e-05
20 *249:B_N *263:B1 6.54361e-06
21 *249:B_N *265:A1 0.000120773
22 *249:B_N *265:B1 0.000182913
23 *262:A1 *262:B1 0.000274027
24 *262:A1 *295:A 0.000110492
25 *265:A2 *260:A2 0.000414363
26 *265:A2 *88:47 2.04474e-05
27 *62:47 *295:A 5.04569e-05
28 *62:51 *63:6 2.49909e-05
29 *62:51 *63:21 0.000165641
30 *62:51 *63:57 5.83121e-06
31 *62:84 *263:A3 0.000110767
32 *62:84 *77:6 4.77719e-05
33 *264:A *262:A1 2.36673e-05
34 *264:B *62:51 0.000306809
35 *265:A3 *62:10 8.52977e-05
36 *265:A3 *62:14 5.97443e-05
37 *265:A3 *62:43 3.6355e-05
38 *272:B *249:B_N 4.77769e-05
39 *272:C *249:B_N 3.29447e-05
40 *278:D *261:A1 1.50897e-05
41 *279:D *261:A1 8.35068e-05
42 *281:CLK *261:A1 0.000128548
43 *281:D *62:47 0.000114201
44 *288:A *62:47 8.14576e-05
45 *289:A *62:51 8.52845e-05
46 *60:16 *261:A1 3.22734e-05
47 *61:33 *62:43 4.77757e-05
48 *61:40 *62:43 0.000123955
49 *61:40 *62:84 0.000219757
50 *61:44 *249:B_N 4.41506e-05
51 *61:44 *62:84 2.01504e-05
*RES
1 *279:Q *62:6 1.96 
2 *62:6 *62:10 3.83 
3 *62:10 *62:14 4.655 
4 *62:14 *265:A2 6.115 
5 *62:14 *260:A1 1.6 
6 *62:10 *261:A1 8.895 
7 *62:6 *62:43 1.83 
8 *62:43 *62:47 5.93 
9 *62:47 *62:51 5.9 
10 *62:51 *248:A 9.395 
11 *62:51 *263:A2 1.6 
12 *62:47 *262:A1 8.64 
13 *62:43 *62:84 2.52 
14 *62:84 *249:B_N 14.4 
15 *62:84 *266:C 1.6 
*END

*D_NET *63 0.00582186
*CONN
*I *255:A I *D sky130_fd_sc_hd__nor3b_1
*I *246:A I *D sky130_fd_sc_hd__xor2_1
*I *263:A1 I *D sky130_fd_sc_hd__a31o_1
*I *266:B I *D sky130_fd_sc_hd__and4_1
*I *265:A1 I *D sky130_fd_sc_hd__a31oi_1
*I *295:A I *D sky130_fd_sc_hd__dlygate4sd3_1
*I *280:Q O *D sky130_fd_sc_hd__dfxtp_1
*CAP
1 *255:A 0.000413822
2 *246:A 0
3 *263:A1 0
4 *266:B 3.4353e-05
5 *265:A1 0.000318482
6 *295:A 0.00021656
7 *280:Q 5.18367e-05
8 *63:64 0.000638086
9 *63:57 0.000275792
10 *63:25 0.000449356
11 *63:21 0.000354365
12 *63:6 0.000474713
13 *255:A *244:B 2.33933e-05
14 *255:A *245:B 0.000139374
15 *255:A *246:B 1.77595e-05
16 *255:A *250:A1 7.3916e-05
17 *255:A *257:B1 1.92355e-05
18 *255:A *64:38 1.14169e-05
19 *265:A1 *260:A2 7.36551e-05
20 *265:A1 *263:B1 0.000133453
21 *265:A1 *265:B1 5.53901e-05
22 *266:B *263:A3 3.93531e-05
23 *266:B *266:A 4.77769e-05
24 *63:25 *249:A 1.10951e-05
25 *63:25 *263:A3 0.000199811
26 *63:25 *263:B1 0.000280235
27 *63:57 *263:B1 4.21674e-05
28 *63:64 *263:B1 1.19928e-05
29 *243:A *266:B 8.41384e-05
30 *249:B_N *265:A1 0.000120773
31 *251:C1 *255:A 4.77757e-05
32 *255:B *255:A 4.66108e-05
33 *257:A2 *255:A 0.000155608
34 *262:A1 *295:A 0.000110492
35 *264:B *63:6 1.41095e-05
36 *267:B *265:A1 9.32216e-05
37 *272:B *265:A1 4.12086e-05
38 *288:A *265:A1 5.0096e-05
39 *288:A *295:A 0.000197757
40 *289:A *265:A1 1.46781e-05
41 *289:A *63:21 8.52845e-05
42 *289:A *63:25 5.08434e-05
43 *33:20 *255:A 8.34281e-06
44 *61:44 *266:B 4.66108e-05
45 *62:47 *295:A 5.04569e-05
46 *62:51 *63:6 2.49909e-05
47 *62:51 *63:21 0.000165641
48 *62:51 *63:57 5.83121e-06
*RES
1 *280:Q *63:6 2.395 
2 *63:6 *295:A 9.83 
3 *63:6 *63:21 3.555 
4 *63:21 *63:25 5.675 
5 *63:25 *265:A1 13.165 
6 *63:25 *266:B 4.74 
7 *63:21 *63:57 1.065 
8 *63:57 *263:A1 1.6 
9 *63:57 *63:64 3.21 
10 *63:64 *246:A 1.6 
11 *63:64 *255:A 12.65 
*END

*D_NET *64 0.00347094
*CONN
*I *245:B I *D sky130_fd_sc_hd__and2b_1
*I *290:A I *D sky130_fd_sc_hd__dlygate4sd3_1
*I *244:A_N I *D sky130_fd_sc_hd__and2b_1
*I *266:A I *D sky130_fd_sc_hd__and4_1
*I *281:Q O *D sky130_fd_sc_hd__dfxtp_1
*CAP
1 *245:B 0.000190101
2 *290:A 0
3 *244:A_N 0.000137427
4 *266:A 0.000164705
5 *281:Q 0.000146802
6 *64:38 0.000273955
7 *64:12 0.000359865
8 *64:8 0.000288389
9 *244:A_N *250:A1 2.02052e-05
10 *245:B *244:B 0.000124197
11 *245:B *246:B 0.00023802
12 *245:B *250:A1 1.56982e-05
13 *266:A *263:A3 0.000156147
14 *64:8 *265:B1 2.86975e-05
15 *64:12 *250:A1 0.000167991
16 *243:A *266:A 0.000285531
17 *247:C *245:B 0.000172069
18 *250:C1 *244:A_N 9.87777e-05
19 *255:A *245:B 0.000139374
20 *255:A *64:38 1.14169e-05
21 *256:A1 *244:A_N 0.000221697
22 *256:A1 *266:A 7.61533e-06
23 *266:B *266:A 4.77769e-05
24 *37:14 *244:A_N 1.16981e-05
25 *37:14 *266:A 2.4243e-05
26 *37:14 *64:12 0.00013854
*RES
1 *281:Q *64:8 3.79 
2 *64:8 *64:12 4.0175 
3 *64:12 *266:A 7.4925 
4 *64:12 *244:A_N 6.9225 
5 *64:8 *64:38 1.14 
6 *64:38 *290:A 1.6 
7 *64:38 *245:B 11.135 
*END

*D_NET *65 0.00875006
*CONN
*I *270:A1 I *D sky130_fd_sc_hd__a21oi_1
*I *268:A1 I *D sky130_fd_sc_hd__a21oi_1
*I *271:B I *D sky130_fd_sc_hd__and3_1
*I *242:A2 I *D sky130_fd_sc_hd__a2111oi_1
*I *237:A I *D sky130_fd_sc_hd__or2b_1
*I *296:A I *D sky130_fd_sc_hd__dlygate4sd3_1
*I *282:Q O *D sky130_fd_sc_hd__dfxtp_1
*CAP
1 *270:A1 0.00020775
2 *268:A1 2.73056e-05
3 *271:B 0
4 *242:A2 0.000222514
5 *237:A 2.09808e-05
6 *296:A 0.000662714
7 *282:Q 0.000326133
8 *65:74 0.000370106
9 *65:39 0.000671767
10 *65:35 0.000962066
11 *65:31 0.000779125
12 *65:8 0.00109913
13 *242:A2 *237:B_N 4.66108e-05
14 *242:A2 *252:A1 0.000113222
15 *296:A *67:8 4.85763e-05
16 *65:35 *68:12 0.000109129
17 *65:39 *240:A 3.20968e-05
18 *65:39 *270:B1 0.000120412
19 *65:39 *66:36 4.12775e-05
20 *65:39 *68:12 0.000268138
21 *252:A2 *242:A2 0.000203079
22 *268:A2 *270:A1 0.000497335
23 *269:B1 *270:A1 0.000521155
24 *270:A2 *270:A1 0.000185793
25 *272:C *65:39 0.000122801
26 *275:B1 *65:39 5.08242e-05
27 *282:D *296:A 0.000311825
28 *284:CLK *296:A 2.14605e-05
29 *284:D *296:A 0.000234569
30 *285:CLK *296:A 1.42807e-05
31 *285:CLK *65:31 5.72372e-05
32 *285:D *65:35 4.95198e-05
33 *286:A *268:A1 4.89295e-05
34 *286:A *270:A1 1.53053e-05
35 *27:10 *242:A2 8.23457e-05
36 *51:34 *270:A1 0.000109612
37 *59:19 *296:A 1.08056e-05
38 *59:27 *65:8 8.41384e-05
*RES
1 *282:Q *65:8 7.155 
2 *65:8 *296:A 15.375 
3 *65:8 *65:31 2.145 
4 *65:31 *65:35 8.315 
5 *65:35 *65:39 7.71 
6 *65:39 *237:A 1.96 
7 *65:39 *242:A2 9.77 
8 *65:35 *271:B 1.6 
9 *65:31 *65:74 3.935 
10 *65:74 *268:A1 2.41 
11 *65:74 *270:A1 10.345 
*END

*D_NET *66 0.00277565
*CONN
*I *292:A I *D sky130_fd_sc_hd__dlygate4sd3_1
*I *271:A I *D sky130_fd_sc_hd__and3_1
*I *236:A I *D sky130_fd_sc_hd__or2b_1
*I *241:B1 I *D sky130_fd_sc_hd__a22o_1
*I *283:Q O *D sky130_fd_sc_hd__dfxtp_1
*CAP
1 *292:A 0
2 *271:A 0.000103751
3 *236:A 0
4 *241:B1 0.000107102
5 *283:Q 0.000169236
6 *66:36 0.000219106
7 *66:14 0.000270715
8 *66:8 0.000448204
9 *241:B1 *67:31 0.000210956
10 *271:A *68:12 8.70195e-05
11 *66:8 *294:A 4.89295e-05
12 *66:8 *68:27 8.23457e-05
13 *66:14 *67:31 0.00017323
14 *66:36 *68:12 5.77059e-05
15 *238:C1 *241:B1 0.000120407
16 *241:A2 *241:B1 4.71746e-06
17 *269:B1 *66:14 6.90254e-05
18 *269:B1 *66:36 0.000217988
19 *275:B1 *66:14 7.03219e-05
20 *275:B1 *66:36 0.000236037
21 *283:D *66:8 3.04704e-05
22 *54:31 *66:8 7.10593e-06
23 *65:39 *66:36 4.12775e-05
*RES
1 *283:Q *66:8 5.775 
2 *66:8 *66:14 4.7 
3 *66:14 *241:B1 4.405 
4 *66:14 *236:A 1.6 
5 *66:8 *66:36 5.795 
6 *66:36 *271:A 3.445 
7 *66:36 *292:A 1.6 
*END

*D_NET *67 0.00537352
*CONN
*I *294:A I *D sky130_fd_sc_hd__dlygate4sd3_1
*I *241:A1 I *D sky130_fd_sc_hd__a22o_1
*I *252:A1 I *D sky130_fd_sc_hd__o21a_1
*I *238:A1 I *D sky130_fd_sc_hd__o2111ai_1
*I *273:A I *D sky130_fd_sc_hd__and2_1
*I *284:Q O *D sky130_fd_sc_hd__dfxtp_1
*CAP
1 *294:A 0.000213362
2 *241:A1 0
3 *252:A1 0.00015643
4 *238:A1 2.29668e-06
5 *273:A 8.38015e-05
6 *284:Q 6.4702e-05
7 *67:47 0.000569136
8 *67:31 0.000775142
9 *67:19 0.000737821
10 *67:8 0.00030823
11 *252:A1 *237:B_N 4.66108e-05
12 *273:A *277:A1 0
13 *67:31 *276:B1 5.01523e-05
14 *67:31 *291:A 8.52845e-05
15 *67:31 *85:10 0.000291975
16 *67:31 *88:59 0.00019841
17 *238:C1 *67:31 8.73389e-06
18 *241:A2 *67:31 8.66466e-06
19 *241:B1 *67:31 0.000210956
20 *242:A2 *252:A1 0.000113222
21 *252:A2 *238:A1 1.10474e-05
22 *252:A2 *252:A1 3.84153e-05
23 *252:A2 *67:47 4.01988e-05
24 *252:B1 *252:A1 0.000144487
25 *273:B *273:A 0.000129425
26 *273:B *294:A 8.89217e-05
27 *273:B *67:19 0.000257218
28 *283:D *294:A 0.00013019
29 *284:D *67:8 1.28131e-05
30 *284:D *67:47 0.000101007
31 *296:A *67:8 4.85763e-05
32 *23:19 *67:47 0.000158823
33 *24:10 *252:A1 2.23107e-05
34 *24:10 *67:47 4.29942e-05
35 *66:8 *294:A 4.89295e-05
36 *66:14 *67:31 0.00017323
*RES
1 *284:Q *67:8 4.395 
2 *67:8 *273:A 5.235 
3 *67:8 *67:19 3.165 
4 *67:19 *67:31 10.88 
5 *67:31 *67:47 13.0575 
6 *67:47 *238:A1 3.8325 
7 *67:47 *252:A1 7.3275 
8 *67:31 *241:A1 1.6 
9 *67:19 *294:A 7.62 
*END

*D_NET *68 0.003693
*CONN
*I *235:A I *D sky130_fd_sc_hd__or2b_1
*I *239:B I *D sky130_fd_sc_hd__and2b_1
*I *291:A I *D sky130_fd_sc_hd__dlygate4sd3_1
*I *285:Q O *D sky130_fd_sc_hd__dfxtp_1
*CAP
1 *235:A 0.000258669
2 *239:B 0
3 *291:A 0.000100538
4 *285:Q 0.000254479
5 *68:27 0.000424001
6 *68:12 0.00052035
7 *235:A *239:A_N 0.000331022
8 *291:A *276:B1 2.20728e-05
9 *291:A *88:59 4.89295e-05
10 *68:27 *239:A_N 0.000123955
11 *238:C1 *235:A 8.90199e-05
12 *241:A2 *235:A 1.16854e-05
13 *269:B1 *291:A 1.38283e-05
14 *269:B1 *68:12 6.54361e-06
15 *271:A *68:12 8.70195e-05
16 *271:C *68:12 1.77285e-05
17 *275:B1 *291:A 9.05535e-05
18 *275:B1 *68:12 0.000178952
19 *283:D *68:12 0.000173317
20 *28:10 *235:A 0.000155601
21 *30:16 *235:A 0.000121036
22 *54:31 *68:27 6.11009e-05
23 *65:35 *68:12 0.000109129
24 *65:39 *68:12 0.000268138
25 *66:8 *68:27 8.23457e-05
26 *66:36 *68:12 5.77059e-05
27 *67:31 *291:A 8.52845e-05
*RES
1 *285:Q *68:12 10.86 
2 *68:12 *291:A 6.03 
3 *68:12 *68:27 4.865 
4 *68:27 *239:B 1.6 
5 *68:27 *235:A 10.73 
*END

*D_NET *69 0.00213716
*CONN
*I *251:A1 I *D sky130_fd_sc_hd__a211oi_1
*I *250:A1 I *D sky130_fd_sc_hd__o211ai_1
*I *297:X O *D sky130_fd_sc_hd__clkbuf_1
*CAP
1 *251:A1 0.000181256
2 *250:A1 0.000553026
3 *297:X 0
4 *69:4 0.000734281
5 *251:A1 *82:10 7.01303e-05
6 *244:A_N *250:A1 2.02052e-05
7 *245:B *250:A1 1.56982e-05
8 *247:A *250:A1 2.747e-05
9 *247:A *251:A1 2.61093e-05
10 *247:C *251:A1 3.03465e-05
11 *251:A2 *251:A1 8.30853e-06
12 *255:A *250:A1 7.3916e-05
13 *297:A *250:A1 2.69217e-05
14 *297:A *251:A1 4.90227e-05
15 *37:14 *250:A1 0.000152473
16 *64:12 *250:A1 0.000167991
*RES
1 *297:X *69:4 1.6 
2 *69:4 *250:A1 14.615 
3 *69:4 *251:A1 8.3 
*END

*D_NET *70 0.000187621
*CONN
*I *307:A I *D sky130_fd_sc_hd__buf_2
*I *258:X O *D sky130_fd_sc_hd__o2bb2a_1
*CAP
1 *307:A 9.38103e-05
2 *258:X 9.38103e-05
*RES
1 *258:X *307:A 4.61 
*END

*D_NET *71 0.000904692
*CONN
*I *257:B1 I *D sky130_fd_sc_hd__o31a_1
*I *306:X O *D sky130_fd_sc_hd__clkbuf_1
*CAP
1 *257:B1 0.000217253
2 *306:X 0.000217253
3 *257:B1 *244:B 0.000238345
4 *257:B1 *258:A1_N 4.59022e-06
5 *255:A *257:B1 1.92355e-05
6 *257:A2 *257:B1 1.19928e-05
7 *258:B1 *257:B1 6.04287e-05
8 *258:B2 *257:B1 0.000112714
9 *33:20 *257:B1 2.28811e-05
*RES
1 *306:X *257:B1 11.865 
*END

*D_NET *72 0.000711557
*CONN
*I *258:A1_N I *D sky130_fd_sc_hd__o2bb2a_1
*I *306:A I *D sky130_fd_sc_hd__clkbuf_1
*I *308:X O *D sky130_fd_sc_hd__clkbuf_1
*CAP
1 *258:A1_N 8.11807e-05
2 *306:A 7.85835e-05
3 *308:X 0
4 *72:4 0.000159764
5 *251:C1 *258:A1_N 4.41506e-05
6 *256:B1 *306:A 4.66108e-05
7 *257:B1 *258:A1_N 4.59022e-06
8 *258:A2_N *258:A1_N 4.41506e-05
9 *258:B1 *258:A1_N 0.000112589
10 *258:B2 *258:A1_N 5.31158e-06
11 *33:20 *258:A1_N 0.000134625
*RES
1 *308:X *72:4 1.6 
2 *72:4 *306:A 2.92 
3 *72:4 *258:A1_N 8.04125 
*END

*D_NET *73 0.00326369
*CONN
*I *262:A2 I *D sky130_fd_sc_hd__a21oi_1
*I *259:A I *D sky130_fd_sc_hd__nor2_1
*I *261:A2 I *D sky130_fd_sc_hd__o21a_1
*I *289:X O *D sky130_fd_sc_hd__dlygate4sd3_1
*CAP
1 *262:A2 1.85082e-05
2 *259:A 0
3 *261:A2 0.000334783
4 *289:X 0.000452578
5 *73:31 0.000147033
6 *73:6 0.000915886
7 *261:A2 *259:B 0.000182427
8 *73:31 *259:B 0.000158551
9 *264:A *262:A2 2.86975e-05
10 *264:A *73:31 0.000118064
11 *264:B *73:6 0.000645076
12 *278:D *73:31 0.000227979
13 *279:D *261:A2 9.18708e-06
14 *280:D *261:A2 4.6368e-06
15 *280:D *73:6 9.47267e-06
16 *60:8 *73:31 1.08056e-05
*RES
1 *289:X *73:6 7.915 
2 *73:6 *261:A2 10.37 
3 *73:6 *73:31 7.66 
4 *73:31 *259:A 1.6 
5 *73:31 *262:A2 2.05 
*END

*D_NET *74 0.00156606
*CONN
*I *265:B1 I *D sky130_fd_sc_hd__a31oi_1
*I *290:X O *D sky130_fd_sc_hd__dlygate4sd3_1
*CAP
1 *265:B1 0.000475806
2 *290:X 0.000475806
3 *265:B1 *260:A2 0
4 *265:B1 *263:A3 0.000153816
5 *249:B_N *265:B1 0.000182913
6 *265:A1 *265:B1 5.53901e-05
7 *265:A3 *265:B1 0
8 *267:B *265:B1 8.71386e-06
9 *272:B *265:B1 4.1652e-06
10 *272:C *265:B1 0
11 *283:D *265:B1 2.76117e-05
12 *289:A *265:B1 0.000153139
13 *64:8 *265:B1 2.86975e-05
*RES
1 *290:X *265:B1 15.795 
*END

*D_NET *75 0.00238565
*CONN
*I *276:A1 I *D sky130_fd_sc_hd__a21oi_1
*I *277:A1 I *D sky130_fd_sc_hd__o21a_1
*I *291:X O *D sky130_fd_sc_hd__dlygate4sd3_1
*CAP
1 *276:A1 0.000452744
2 *277:A1 0.000446537
3 *291:X 0
4 *75:4 0.000899281
5 *276:A1 *276:B1 0.000301942
6 *276:A1 *85:10 1.91597e-05
7 *276:A1 *88:59 0.000114157
8 *277:A1 *88:59 5.88353e-05
9 *273:A *277:A1 0
10 *285:D *277:A1 0
11 *287:A *276:A1 4.41506e-05
12 *287:A *277:A1 4.88478e-05
*RES
1 *291:X *75:4 1.6 
2 *75:4 *277:A1 11.45 
3 *75:4 *276:A1 11.75 
*END

*D_NET *76 0.000592851
*CONN
*I *270:B1 I *D sky130_fd_sc_hd__a21oi_1
*I *292:X O *D sky130_fd_sc_hd__dlygate4sd3_1
*CAP
1 *270:B1 0.000144277
2 *292:X 0.000144277
3 *269:B1 *270:B1 6.90254e-05
4 *272:B *270:B1 5.20249e-05
5 *272:C *270:B1 3.54295e-05
6 *283:D *270:B1 2.74056e-05
7 *65:39 *270:B1 0.000120412
*RES
1 *292:X *270:B1 9.975 
*END

*D_NET *77 0.00366712
*CONN
*I *263:A3 I *D sky130_fd_sc_hd__a31o_1
*I *260:A2 I *D sky130_fd_sc_hd__a21oi_1
*I *293:X O *D sky130_fd_sc_hd__dlygate4sd3_1
*CAP
1 *263:A3 0.000509122
2 *260:A2 0.000326819
3 *293:X 3.43016e-05
4 *77:6 0.000870243
5 *260:A2 *272:A 1.26432e-05
6 *260:A2 *88:47 7.46979e-05
7 *263:A3 *249:A 7.71911e-05
8 *249:B_N *260:A2 3.24812e-05
9 *265:A1 *260:A2 7.36551e-05
10 *265:A2 *260:A2 0.000414363
11 *265:A3 *260:A2 7.36329e-05
12 *265:B1 *260:A2 0
13 *265:B1 *263:A3 0.000153816
14 *266:A *263:A3 0.000156147
15 *266:B *263:A3 3.93531e-05
16 *267:B *260:A2 2.382e-05
17 *267:C *260:A2 8.64421e-05
18 *272:B *260:A2 0
19 *288:A *260:A2 0.000120357
20 *289:A *263:A3 0.000221339
21 *61:44 *263:A3 8.34281e-06
22 *62:84 *263:A3 0.000110767
23 *62:84 *77:6 4.77719e-05
24 *63:25 *263:A3 0.000199811
*RES
1 *293:X *77:6 2.05 
2 *77:6 *260:A2 13.925 
3 *77:6 *263:A3 18.165 
*END

*D_NET *78 0.000467454
*CONN
*I *275:A1 I *D sky130_fd_sc_hd__o21a_1
*I *294:X O *D sky130_fd_sc_hd__dlygate4sd3_1
*CAP
1 *275:A1 0.000110768
2 *294:X 0.000110768
3 *275:A1 *240:A 3.45117e-05
4 *269:B1 *275:A1 1.56261e-05
5 *54:31 *275:A1 0.00019578
*RES
1 *294:X *275:A1 9.375 
*END

*D_NET *79 0.000513162
*CONN
*I *262:B1 I *D sky130_fd_sc_hd__a21oi_1
*I *295:X O *D sky130_fd_sc_hd__dlygate4sd3_1
*CAP
1 *262:B1 0.000117214
2 *295:X 0.000117214
3 *262:A1 *262:B1 0.000274027
4 *264:A *262:B1 4.7072e-06
*RES
1 *295:X *262:B1 6.065 
*END

*D_NET *80 0.00174377
*CONN
*I *248:B_N I *D sky130_fd_sc_hd__or2b_1
*I *249:A I *D sky130_fd_sc_hd__or2b_1
*I *298:X O *D sky130_fd_sc_hd__clkbuf_1
*CAP
1 *248:B_N 0
2 *249:A 0.000357053
3 *298:X 0.000195846
4 *80:10 0.000552898
5 *249:A *263:B1 0.000405352
6 *248:A *249:A 8.87378e-05
7 *248:A *80:10 3.68942e-05
8 *263:A3 *249:A 7.71911e-05
9 *298:A *80:10 1.87038e-05
10 *63:25 *249:A 1.10951e-05
*RES
1 *298:X *80:10 6.375 
2 *80:10 *249:A 11.1 
3 *80:10 *248:B_N 3.6 
*END

*D_NET *81 9.42304e-05
*CONN
*I *269:A1 I *D sky130_fd_sc_hd__o21a_1
*I *296:X O *D sky130_fd_sc_hd__dlygate4sd3_1
*CAP
1 *269:A1 8.30169e-06
2 *296:X 8.30169e-06
3 *282:D *269:A1 2.86975e-05
4 *284:D *269:A1 4.89295e-05
*RES
1 *296:X *269:A1 3.65 
*END

*D_NET *82 0.00253656
*CONN
*I *246:B I *D sky130_fd_sc_hd__xor2_1
*I *255:C_N I *D sky130_fd_sc_hd__nor3b_1
*I *299:X O *D sky130_fd_sc_hd__buf_1
*CAP
1 *246:B 0.000470873
2 *255:C_N 0.000111191
3 *299:X 0.00024614
4 *82:10 0.000828204
5 *82:10 *83:10 8.49454e-05
6 *245:B *246:B 0.00023802
7 *247:B *82:10 0
8 *247:C *246:B 4.33663e-05
9 *247:C *82:10 1.67309e-05
10 *251:A1 *82:10 7.01303e-05
11 *251:A2 *82:10 2.1939e-05
12 *251:C1 *255:C_N 4.88478e-05
13 *255:A *246:B 1.77595e-05
14 *256:B1 *255:C_N 0.000109743
15 *256:B1 *82:10 8.33066e-06
16 *258:A2_N *246:B 3.12683e-05
17 *299:A *82:10 1.84465e-05
18 *36:8 *82:10 0.000170621
*RES
1 *299:X *82:10 8.58 
2 *82:10 *255:C_N 5.775 
3 *82:10 *246:B 9.495 
*END

*D_NET *83 0.00304407
*CONN
*I *245:A_N I *D sky130_fd_sc_hd__and2b_1
*I *244:B I *D sky130_fd_sc_hd__and2b_1
*I *300:X O *D sky130_fd_sc_hd__clkbuf_1
*CAP
1 *245:A_N 5.72652e-05
2 *244:B 0.000435033
3 *300:X 0.000417573
4 *83:10 0.000909871
5 *245:B *244:B 0.000124197
6 *247:A *244:B 0.000104371
7 *247:A *83:10 0.00013488
8 *247:C *245:A_N 2.69153e-05
9 *251:A2 *244:B 1.56043e-05
10 *255:A *244:B 2.33933e-05
11 *256:A1 *244:B 7.27003e-05
12 *256:A2 *244:B 1.56982e-05
13 *256:B1 *244:B 6.72833e-06
14 *257:A3 *244:B 0.000308097
15 *257:B1 *244:B 0.000238345
16 *258:B1 *244:B 1.56261e-05
17 *299:A *83:10 2.69153e-05
18 *33:20 *244:B 2.59161e-05
19 *82:10 *83:10 8.49454e-05
*RES
1 *300:X *83:10 10.665 
2 *83:10 *244:B 14.22 
3 *83:10 *245:A_N 4.41 
*END

*D_NET *84 0.00230108
*CONN
*I *233:A I *D sky130_fd_sc_hd__inv_2
*I *237:B_N I *D sky130_fd_sc_hd__or2b_1
*I *301:X O *D sky130_fd_sc_hd__buf_1
*CAP
1 *233:A 0.000382025
2 *237:B_N 0.000213908
3 *301:X 0.000110484
4 *84:12 0.000706417
5 *233:A *234:A 9.37547e-05
6 *233:A *85:10 3.08546e-05
7 *242:A2 *237:B_N 4.66108e-05
8 *252:A1 *237:B_N 4.66108e-05
9 *252:A2 *237:B_N 2.57814e-05
10 *252:B1 *237:B_N 2.69217e-05
11 *253:A1 *233:A 0.000215429
12 *253:A1 *237:B_N 0.000197833
13 *254:A *237:B_N 1.19928e-05
14 *258:B1 *237:B_N 0.000122197
15 *301:A *84:12 1.95588e-05
16 *23:6 *233:A 5.06989e-05
*RES
1 *301:X *84:12 7.175 
2 *84:12 *237:B_N 6.325 
3 *84:12 *233:A 13.025 
*END

*D_NET *85 0.00397555
*CONN
*I *236:B_N I *D sky130_fd_sc_hd__or2b_1
*I *240:A I *D sky130_fd_sc_hd__inv_2
*I *302:X O *D sky130_fd_sc_hd__buf_1
*CAP
1 *236:B_N 0
2 *240:A 0.000566743
3 *302:X 0.00061039
4 *85:10 0.00117713
5 *85:10 *276:B1 4.77719e-05
6 *233:A *85:10 3.08546e-05
7 *241:A2 *85:10 8.58558e-05
8 *241:B2 *240:A 0.000134631
9 *269:B1 *240:A 0.000303442
10 *275:A1 *240:A 3.45117e-05
11 *275:B1 *240:A 0.000225614
12 *276:A1 *85:10 1.91597e-05
13 *23:6 *85:10 0.000409138
14 *54:31 *240:A 6.23541e-06
15 *65:39 *240:A 3.20968e-05
16 *67:31 *85:10 0.000291975
*RES
1 *302:X *85:10 11.05 
2 *85:10 *240:A 19.71 
3 *85:10 *236:B_N 1.6 
*END

*D_NET *86 0.000765528
*CONN
*I *234:A I *D sky130_fd_sc_hd__inv_2
*I *303:X O *D sky130_fd_sc_hd__clkbuf_1
*CAP
1 *234:A 0.000187391
2 *303:X 0.000187391
3 *233:A *234:A 9.37547e-05
4 *253:A1 *234:A 0.000126636
5 *254:A *234:A 1.08758e-05
6 *254:B *234:A 0.000155721
7 *302:A *234:A 3.75882e-06
*RES
1 *303:X *234:A 11.325 
*END

*D_NET *87 0.00253762
*CONN
*I *235:B_N I *D sky130_fd_sc_hd__or2b_1
*I *239:A_N I *D sky130_fd_sc_hd__and2b_1
*I *304:X O *D sky130_fd_sc_hd__clkbuf_1
*CAP
1 *235:B_N 0
2 *239:A_N 0.000279165
3 *304:X 0.000346136
4 *87:12 0.000625301
5 *235:A *239:A_N 0.000331022
6 *238:B1 *239:A_N 4.77719e-05
7 *238:C1 *239:A_N 1.01155e-05
8 *241:A2 *239:A_N 4.77719e-05
9 *252:A2 *239:A_N 4.03557e-05
10 *23:6 *239:A_N 0.000232434
11 *23:19 *239:A_N 0.000133085
12 *24:10 *239:A_N 0.000122821
13 *27:10 *239:A_N 6.13283e-05
14 *28:10 *239:A_N 2.42043e-05
15 *30:16 *239:A_N 6.14541e-05
16 *54:31 *239:A_N 5.06989e-05
17 *68:27 *239:A_N 0.000123955
*RES
1 *304:X *87:12 9.5 
2 *87:12 *239:A_N 13.82 
3 *87:12 *235:B_N 1.6 
*END

*D_NET *88 0.00942616
*CONN
*I *267:A I *D sky130_fd_sc_hd__nor3_1
*I *263:B1 I *D sky130_fd_sc_hd__a31o_1
*I *272:A I *D sky130_fd_sc_hd__nor3_1
*I *274:A I *D sky130_fd_sc_hd__nor2_1
*I *276:B1 I *D sky130_fd_sc_hd__a21oi_1
*I *260:B1 I *D sky130_fd_sc_hd__a21oi_1
*I *268:B1 I *D sky130_fd_sc_hd__a21oi_1
*I *259:B I *D sky130_fd_sc_hd__nor2_1
*I *305:X O *D sky130_fd_sc_hd__clkbuf_2
*CAP
1 *267:A 0
2 *263:B1 0.000587932
3 *272:A 1.20884e-05
4 *274:A 0
5 *276:B1 0.000164178
6 *260:B1 0
7 *268:B1 9.38448e-05
8 *259:B 0.000436443
9 *305:X 0
10 *88:87 0.0011629
11 *88:59 0.000866507
12 *88:49 0.00126521
13 *88:47 0.000130631
14 *88:36 0.00021559
15 *88:23 0.000554036
16 *88:4 0.000811675
17 *249:A *263:B1 0.000405352
18 *249:B_N *263:B1 6.54361e-06
19 *256:A1 *263:B1 0
20 *260:A2 *272:A 1.26432e-05
21 *260:A2 *88:47 7.46979e-05
22 *261:A2 *259:B 0.000182427
23 *261:B1 *259:B 0.000223398
24 *261:B1 *88:36 5.88353e-05
25 *261:B1 *88:47 6.69608e-06
26 *264:A *259:B 0.000112135
27 *265:A1 *263:B1 0.000133453
28 *265:A2 *88:47 2.04474e-05
29 *265:A3 *88:47 5.80663e-05
30 *269:B1 *276:B1 6.76478e-05
31 *272:B *263:B1 2.0189e-05
32 *276:A1 *276:B1 0.000301942
33 *276:A1 *88:59 0.000114157
34 *276:A2 *276:B1 4.77719e-05
35 *277:A1 *88:59 5.88353e-05
36 *279:CLK *88:23 1.87038e-05
37 *279:D *88:23 8.65254e-06
38 *283:D *272:A 2.99518e-06
39 *284:D *276:B1 2.86975e-05
40 *285:D *88:59 0
41 *286:A *259:B 0.000143808
42 *287:A *88:59 0.000156754
43 *291:A *276:B1 2.20728e-05
44 *291:A *88:59 4.89295e-05
45 *51:25 *88:59 0
46 *63:25 *263:B1 0.000280235
47 *63:57 *263:B1 4.21674e-05
48 *63:64 *263:B1 1.19928e-05
49 *67:31 *276:B1 5.01523e-05
50 *67:31 *88:59 0.00019841
51 *73:31 *259:B 0.000158551
52 *85:10 *276:B1 4.77719e-05
*RES
1 *305:X *88:4 1.6 
2 *88:4 *259:B 15.89 
3 *88:4 *88:23 6.5 
4 *88:23 *268:B1 5.49 
5 *88:23 *88:36 3.485 
6 *88:36 *260:B1 1.6 
7 *88:36 *88:47 2.895 
8 *88:47 *88:49 2 
9 *88:49 *88:59 15.41 
10 *88:59 *276:B1 10.22 
11 *88:59 *274:A 1.6 
12 *88:49 *88:87 1.17893 
13 *88:87 *272:A 4.3325 
14 *88:87 *263:B1 11.4534 
15 *88:47 *267:A 1.6 
*END
