*SPEF "ieee 1481-1999"
*DESIGN "pwm_ctrl"
*DATE "17:02:48 Monday May 04, 2026"
*VENDOR "The OpenROAD Project"
*PROGRAM "OpenROAD"
*VERSION "b16bda7e82721d10566ff7e2b68f1ff0be9f9e38"
*DESIGN_FLOW "NAME_SCOPE LOCAL" "PIN_CAP NONE"
*DIVIDER /
*DELIMITER :
*BUS_DELIMITER []
*T_UNIT 1 NS
*C_UNIT 1 PF
*R_UNIT 1 OHM
*L_UNIT 1 HENRY

*NAME_MAP
*3 clk
*4 duty[0]
*5 duty[1]
*6 duty[2]
*7 duty[3]
*8 duty[4]
*9 duty[5]
*10 duty[6]
*11 duty[7]
*12 pwm_out
*13 rst
*14 _00_
*15 _01_
*16 _02_
*17 _03_
*18 _04_
*19 _05_
*20 _06_
*21 _07_
*22 _08_
*23 _09_
*24 _10_
*25 _11_
*26 _12_
*27 _13_
*28 _14_
*29 _15_
*30 _16_
*31 _17_
*32 _18_
*33 _19_
*34 _20_
*35 _21_
*36 _22_
*37 _23_
*38 _24_
*39 _25_
*40 _26_
*41 _27_
*42 _28_
*43 _29_
*44 _30_
*45 _31_
*46 _32_
*47 _33_
*48 _34_
*49 _35_
*50 _36_
*51 _37_
*52 _38_
*53 _39_
*54 _40_
*55 _41_
*56 _42_
*57 _43_
*58 clknet_0_clk
*59 clknet_1_0__leaf_clk
*60 clknet_1_1__leaf_clk
*61 counter\[0\]
*62 counter\[1\]
*63 counter\[2\]
*64 counter\[3\]
*65 counter\[4\]
*66 counter\[5\]
*67 counter\[6\]
*68 counter\[7\]
*69 net1
*70 net10
*71 net11
*72 net12
*73 net13
*74 net14
*75 net15
*76 net16
*77 net17
*78 net18
*79 net19
*80 net2
*81 net20
*82 net3
*83 net4
*84 net5
*85 net6
*86 net7
*87 net8
*88 net9
*89 FILLER_0_0_12
*90 FILLER_0_0_15
*91 FILLER_0_0_24
*92 FILLER_0_0_27
*93 FILLER_0_0_3
*94 FILLER_0_0_34
*95 FILLER_0_0_37
*96 FILLER_0_0_40
*97 FILLER_0_0_43
*98 FILLER_0_0_46
*99 FILLER_0_0_49
*100 FILLER_0_0_52
*101 FILLER_0_0_55
*102 FILLER_0_0_57
*103 FILLER_0_0_6
*104 FILLER_0_0_60
*105 FILLER_0_0_63
*106 FILLER_0_0_66
*107 FILLER_0_0_69
*108 FILLER_0_0_9
*109 FILLER_0_10_12
*110 FILLER_0_10_22
*111 FILLER_0_10_25
*112 FILLER_0_10_3
*113 FILLER_0_10_37
*114 FILLER_0_10_40
*115 FILLER_0_10_48
*116 FILLER_0_10_51
*117 FILLER_0_10_54
*118 FILLER_0_10_57
*119 FILLER_0_10_6
*120 FILLER_0_10_68
*121 FILLER_0_10_9
*122 FILLER_0_11_29
*123 FILLER_0_11_3
*124 FILLER_0_11_32
*125 FILLER_0_11_35
*126 FILLER_0_11_38
*127 FILLER_0_11_41
*128 FILLER_0_11_44
*129 FILLER_0_11_48
*130 FILLER_0_11_51
*131 FILLER_0_11_54
*132 FILLER_0_11_57
*133 FILLER_0_11_6
*134 FILLER_0_11_60
*135 FILLER_0_11_63
*136 FILLER_0_1_3
*137 FILLER_0_1_46
*138 FILLER_0_1_49
*139 FILLER_0_1_52
*140 FILLER_0_1_55
*141 FILLER_0_1_57
*142 FILLER_0_1_6
*143 FILLER_0_1_60
*144 FILLER_0_1_63
*145 FILLER_0_1_66
*146 FILLER_0_1_9
*147 FILLER_0_2_3
*148 FILLER_0_2_40
*149 FILLER_0_2_6
*150 FILLER_0_3_69
*151 FILLER_0_4_27
*152 FILLER_0_4_3
*153 FILLER_0_4_34
*154 FILLER_0_4_6
*155 FILLER_0_4_9
*156 FILLER_0_5_12
*157 FILLER_0_5_3
*158 FILLER_0_5_41
*159 FILLER_0_5_44
*160 FILLER_0_5_50
*161 FILLER_0_5_53
*162 FILLER_0_5_57
*163 FILLER_0_5_6
*164 FILLER_0_5_60
*165 FILLER_0_5_63
*166 FILLER_0_5_66
*167 FILLER_0_5_9
*168 FILLER_0_6_12
*169 FILLER_0_6_15
*170 FILLER_0_6_21
*171 FILLER_0_6_27
*172 FILLER_0_6_3
*173 FILLER_0_6_38
*174 FILLER_0_6_6
*175 FILLER_0_6_63
*176 FILLER_0_6_66
*177 FILLER_0_6_69
*178 FILLER_0_6_9
*179 FILLER_0_7_40
*180 FILLER_0_7_43
*181 FILLER_0_7_51
*182 FILLER_0_7_65
*183 FILLER_0_7_7
*184 FILLER_0_8_27
*185 FILLER_0_8_3
*186 FILLER_0_8_66
*187 FILLER_0_8_69
*188 FILLER_0_9_3
*189 FILLER_0_9_44
*190 FILLER_0_9_47
*191 FILLER_0_9_55
*192 FILLER_0_9_6
*193 FILLER_0_9_63
*194 FILLER_0_9_9
*195 PHY_EDGE_ROW_0_Left_12
*196 PHY_EDGE_ROW_0_Right_0
*197 PHY_EDGE_ROW_10_Left_22
*198 PHY_EDGE_ROW_10_Right_10
*199 PHY_EDGE_ROW_11_Left_23
*200 PHY_EDGE_ROW_11_Right_11
*201 PHY_EDGE_ROW_1_Left_13
*202 PHY_EDGE_ROW_1_Right_1
*203 PHY_EDGE_ROW_2_Left_14
*204 PHY_EDGE_ROW_2_Right_2
*205 PHY_EDGE_ROW_3_Left_15
*206 PHY_EDGE_ROW_3_Right_3
*207 PHY_EDGE_ROW_4_Left_16
*208 PHY_EDGE_ROW_4_Right_4
*209 PHY_EDGE_ROW_5_Left_17
*210 PHY_EDGE_ROW_5_Right_5
*211 PHY_EDGE_ROW_6_Left_18
*212 PHY_EDGE_ROW_6_Right_6
*213 PHY_EDGE_ROW_7_Left_19
*214 PHY_EDGE_ROW_7_Right_7
*215 PHY_EDGE_ROW_8_Left_20
*216 PHY_EDGE_ROW_8_Right_8
*217 PHY_EDGE_ROW_9_Left_21
*218 PHY_EDGE_ROW_9_Right_9
*219 TAP_TAPCELL_ROW_0_24
*220 TAP_TAPCELL_ROW_0_25
*221 TAP_TAPCELL_ROW_10_35
*222 TAP_TAPCELL_ROW_11_36
*223 TAP_TAPCELL_ROW_11_37
*224 TAP_TAPCELL_ROW_1_26
*225 TAP_TAPCELL_ROW_2_27
*226 TAP_TAPCELL_ROW_3_28
*227 TAP_TAPCELL_ROW_4_29
*228 TAP_TAPCELL_ROW_5_30
*229 TAP_TAPCELL_ROW_6_31
*230 TAP_TAPCELL_ROW_7_32
*231 TAP_TAPCELL_ROW_8_33
*232 TAP_TAPCELL_ROW_9_34
*233 _44_
*234 _45_
*235 _46_
*236 _47_
*237 _48_
*238 _49_
*239 _50_
*240 _51_
*241 _52_
*242 _53_
*243 _54_
*244 _55_
*245 _56_
*246 _57_
*247 _58_
*248 _59_
*249 _60_
*250 _61_
*251 _62_
*252 _63_
*253 _64_
*254 _65_
*255 _66_
*256 _67_
*257 _68_
*258 _69_
*259 _70_
*260 _71_
*261 _72_
*262 _73_
*263 _74_
*264 _75_
*265 _76_
*266 _77_
*267 _78_
*268 _79_
*269 _80_
*270 _81_
*271 _82_
*272 _83_
*273 _84_
*274 _85_
*275 _86_
*276 _87_
*277 _88_
*278 _89_
*279 _90_
*280 _91_
*281 _92_
*282 _93_
*283 _94_
*284 _95_
*285 _96_
*286 clkbuf_0_clk
*287 clkbuf_1_0__f_clk
*288 clkbuf_1_1__f_clk
*289 hold1
*290 hold2
*291 hold3
*292 hold4
*293 hold5
*294 hold6
*295 hold7
*296 hold8
*297 input1
*298 input2
*299 input3
*300 input4
*301 input5
*302 input6
*303 input7
*304 input8
*305 input9
*306 max_cap11
*307 output10
*308 wire12

*PORTS
clk I
duty[0] I
duty[1] I
duty[2] I
duty[3] I
duty[4] I
duty[5] I
duty[6] I
duty[7] I
pwm_out O
rst I

*D_NET *3 0.00218423
*CONN
*P clk I
*I *286:A I *D sky130_fd_sc_hd__clkbuf_16
*CAP
1 clk 0.000923472
2 *286:A 0.000923472
3 *286:A *259:B 0.000148342
4 *286:A *261:B1 2.11693e-05
5 *286:A *268:A1 5.65955e-05
6 *286:A *268:A2 5.65955e-05
7 *286:A *269:B1 9.35794e-06
8 *286:A *270:A1 1.64621e-05
9 *286:A *305:A 2.87684e-05
*RES
1 clk *286:A 30.98 
*END

*D_NET *4 0.00258151
*CONN
*P duty[0] I
*I *297:A I *D sky130_fd_sc_hd__clkbuf_1
*CAP
1 duty[0] 0.000865377
2 *297:A 0.000865377
3 *297:A pwm_out 5.80284e-05
4 *297:A *247:A 0.000197425
5 *297:A *247:B 4.03996e-05
6 *297:A *250:A1 2.85321e-05
7 *297:A *251:A1 5.23735e-05
8 *297:A *251:A2 0.000226822
9 *297:A *258:A2_N 0.000202496
10 *297:A *299:A 0
11 *297:A *300:A 4.46812e-05
*RES
1 duty[0] *297:A 24.5227 
*END

*D_NET *5 0.00106395
*CONN
*P duty[1] I
*I *298:A I *D sky130_fd_sc_hd__clkbuf_1
*CAP
1 duty[1] 0.000522325
2 *298:A 0.000522325
3 *298:A *80:10 1.93007e-05
*RES
1 duty[1] *298:A 23.8714 
*END

*D_NET *6 0.00107778
*CONN
*P duty[2] I
*I *299:A I *D sky130_fd_sc_hd__buf_1
*CAP
1 duty[2] 0.000492147
2 *299:A 0.000492147
3 *299:A *300:A 4.46812e-05
4 *299:A *82:10 2.02794e-05
5 *299:A *83:10 2.85234e-05
6 *297:A *299:A 0
*RES
1 duty[2] *299:A 19.7855 
*END

*D_NET *7 0.000941766
*CONN
*P duty[3] I
*I *300:A I *D sky130_fd_sc_hd__clkbuf_1
*CAP
1 duty[3] 0.000426202
2 *300:A 0.000426202
3 *297:A *300:A 4.46812e-05
4 *299:A *300:A 4.46812e-05
*RES
1 duty[3] *300:A 23.9596 
*END

*D_NET *8 0.00084858
*CONN
*P duty[4] I
*I *301:A I *D sky130_fd_sc_hd__buf_1
*CAP
1 duty[4] 0.000390552
2 *301:A 0.000390552
3 *301:A pwm_out 0
4 *301:A *303:A 4.90318e-05
5 *301:A *84:12 1.84433e-05
*RES
1 duty[4] *301:A 19.7128 
*END

*D_NET *9 0.000659816
*CONN
*P duty[5] I
*I *302:A I *D sky130_fd_sc_hd__buf_1
*CAP
1 duty[5] 0.000276238
2 *302:A 0.000276238
3 *302:A *234:A 3.67279e-06
4 *302:A *303:A 5.0644e-05
5 *302:A *304:A 5.30224e-05
*RES
1 duty[5] *302:A 18.1949 
*END

*D_NET *10 0.000744304
*CONN
*P duty[6] I
*I *303:A I *D sky130_fd_sc_hd__clkbuf_1
*CAP
1 duty[6] 0.000322314
2 *303:A 0.000322314
3 *301:A *303:A 4.90318e-05
4 *302:A *303:A 5.0644e-05
*RES
1 duty[6] *303:A 21.4959 
*END

*D_NET *11 0.000737564
*CONN
*P duty[7] I
*I *304:A I *D sky130_fd_sc_hd__clkbuf_1
*CAP
1 duty[7] 0.000342271
2 *304:A 0.000342271
3 *302:A *304:A 5.30224e-05
*RES
1 duty[7] *304:A 19.1056 
*END

*D_NET *12 0.000733929
*CONN
*P pwm_out O
*I *307:X O *D sky130_fd_sc_hd__buf_2
*CAP
1 pwm_out 0.000326781
2 *307:X 0.000326781
3 pwm_out *256:B1 2.23393e-05
4 *297:A pwm_out 5.80284e-05
5 *301:A pwm_out 0
*RES
1 *307:X pwm_out 18.267 
*END

*D_NET *13 0.000638049
*CONN
*P rst I
*I *305:A I *D sky130_fd_sc_hd__clkbuf_2
*CAP
1 rst 0.000304641
2 *305:A 0.000304641
3 *286:A *305:A 2.87684e-05
*RES
1 rst *305:A 20.891 
*END

*D_NET *14 0.00131956
*CONN
*I *278:D I *D sky130_fd_sc_hd__dfxtp_2
*I *259:Y O *D sky130_fd_sc_hd__nor2_1
*CAP
1 *278:D 0.000370559
2 *259:Y 0.000370559
3 *278:D *261:A1 1.74816e-05
4 *278:D *264:A 2.51903e-05
5 *278:D *279:CLK 1.19472e-05
6 *278:D *60:8 0.000111802
7 *278:D *60:12 0.00014852
8 *278:D *60:16 4.87669e-06
9 *278:D *73:31 0.00025862
*RES
1 *259:Y *278:D 34.5687 
*END

*D_NET *15 0.000955092
*CONN
*I *279:D I *D sky130_fd_sc_hd__dfxtp_1
*I *261:X O *D sky130_fd_sc_hd__o21a_1
*CAP
1 *279:D 0.000382398
2 *261:X 0.000382398
3 *279:D *261:A1 9.58126e-05
4 *279:D *261:A2 9.00535e-06
5 *279:D *279:CLK 7.6997e-05
6 *279:D *88:23 8.48062e-06
*RES
1 *261:X *279:D 32.7652 
*END

*D_NET *16 0.000395442
*CONN
*I *280:D I *D sky130_fd_sc_hd__dfxtp_1
*I *264:Y O *D sky130_fd_sc_hd__nor2_1
*CAP
1 *280:D 0.000121859
2 *264:Y 0.000121859
3 *280:D *261:A2 4.85049e-06
4 *280:D *264:B 0.000137109
5 *280:D *73:6 9.76435e-06
*RES
1 *264:Y *280:D 21.2429 
*END

*D_NET *17 0.00129925
*CONN
*I *281:D I *D sky130_fd_sc_hd__dfxtp_1
*I *267:Y O *D sky130_fd_sc_hd__nor3_1
*CAP
1 *281:D 0.000316613
2 *267:Y 0.000316613
3 *281:D *267:B 0.000184297
4 *281:D *288:A 0.000284686
5 *281:D *51:10 7.14469e-05
6 *281:D *62:47 0.000125599
*RES
1 *267:Y *281:D 33.9437 
*END

*D_NET *18 0.00362131
*CONN
*I *282:D I *D sky130_fd_sc_hd__dfxtp_1
*I *269:X O *D sky130_fd_sc_hd__o21a_1
*CAP
1 *282:D 0.000865094
2 *269:X 0.000865094
3 *282:D *269:A1 3.08664e-05
4 *282:D *269:B1 5.50052e-05
5 *282:D *276:A2 3.40802e-05
6 *282:D *284:CLK 0.000206774
7 *282:D *284:D 0.000930029
8 *282:D *296:A 0.000343669
9 *282:D *59:19 0.000147246
10 *282:D *59:27 0.000143453
*RES
1 *269:X *282:D 46.8187 
*END

*D_NET *19 0.00240281
*CONN
*I *283:D I *D sky130_fd_sc_hd__dfxtp_1
*I *272:Y O *D sky130_fd_sc_hd__nor3_1
*CAP
1 *283:D 0.000779427
2 *272:Y 0.000779427
3 *283:D *265:B1 2.91494e-05
4 *283:D *269:A2 0
5 *283:D *270:B1 2.58081e-05
6 *283:D *272:A 2.83284e-06
7 *283:D *272:B 0.000107274
8 *283:D *272:C 1.02412e-05
9 *283:D *288:A 0
10 *283:D *294:A 0.000137858
11 *283:D *51:38 0
12 *283:D *54:31 0.000308595
13 *283:D *66:8 3.18747e-05
14 *283:D *68:12 0.000190322
*RES
1 *272:Y *283:D 42.2295 
*END

*D_NET *20 0.00399668
*CONN
*I *284:D I *D sky130_fd_sc_hd__dfxtp_1
*I *275:X O *D sky130_fd_sc_hd__o21a_1
*CAP
1 *284:D 0.000915234
2 *275:X 0.000915234
3 *284:D *238:C1 6.32191e-05
4 *284:D *238:D1 0.000125542
5 *284:D *241:B2 0.000328708
6 *284:D *269:A1 5.65955e-05
7 *284:D *269:A2 0.000216166
8 *284:D *276:A2 4.30564e-05
9 *284:D *276:B1 3.08664e-05
10 *284:D *296:A 0.000247805
11 *284:D *67:8 1.30607e-05
12 *284:D *67:47 0.000111169
13 *282:D *284:D 0.000930029
*RES
1 *275:X *284:D 49.6937 
*END

*D_NET *21 0.00136978
*CONN
*I *285:D I *D sky130_fd_sc_hd__dfxtp_1
*I *277:X O *D sky130_fd_sc_hd__o21a_1
*CAP
1 *285:D 0.000660843
2 *277:X 0.000660843
3 *285:D *277:A1 0
4 *285:D *65:35 4.80961e-05
5 *285:D *88:59 0
*RES
1 *277:X *285:D 38.033 
*END

*D_NET *22 0.000671099
*CONN
*I *242:A1 I *D sky130_fd_sc_hd__a2111oi_1
*I *233:Y O *D sky130_fd_sc_hd__inv_2
*CAP
1 *242:A1 0.000169435
2 *233:Y 0.000169435
3 *242:A1 *252:B1 9.15842e-06
4 *242:A1 *254:A 1.00887e-05
5 *242:A1 *23:6 1.14843e-05
6 *242:A1 *24:10 0.000148376
7 *242:A1 *30:16 0.00015312
*RES
1 *233:Y *242:A1 30.9036 
*END

*D_NET *23 0.00270887
*CONN
*I *252:A2 I *D sky130_fd_sc_hd__o21a_1
*I *238:A2 I *D sky130_fd_sc_hd__o2111ai_1
*I *241:A2 I *D sky130_fd_sc_hd__a22o_1
*I *234:Y O *D sky130_fd_sc_hd__inv_2
*CAP
1 *252:A2 0.000294044
2 *238:A2 0
3 *241:A2 3.6631e-05
4 *234:Y 9.12867e-05
5 *23:19 0.000363735
6 *23:6 0.000197609
7 *241:A2 *235:A 1.13883e-05
8 *241:A2 *239:A_N 5.49489e-05
9 *241:A2 *241:B1 4.88363e-06
10 *241:A2 *67:31 8.48678e-06
11 *241:A2 *85:10 9.91549e-05
12 *252:A2 *237:B_N 2.8451e-05
13 *252:A2 *238:A1 1.21832e-05
14 *252:A2 *238:C1 1.13186e-05
15 *252:A2 *239:A_N 4.42509e-05
16 *252:A2 *242:A2 0.000225385
17 *252:A2 *252:A1 3.97796e-05
18 *252:A2 *67:47 4.42051e-05
19 *23:6 *233:A 5.45307e-05
20 *23:6 *239:A_N 0.000268042
21 *23:6 *30:16 1.4796e-05
22 *23:6 *85:10 0.000472641
23 *23:19 *239:A_N 0.000146208
24 *23:19 *67:47 0.000173426
25 *242:A1 *23:6 1.14843e-05
*RES
1 *234:Y *23:6 13.9429 
2 *23:6 *241:A2 10.675 
3 *23:6 *23:19 6.75 
4 *23:19 *238:A2 13.8 
5 *23:19 *252:A2 19.4786 
*END

*D_NET *24 0.00178206
*CONN
*I *252:B1 I *D sky130_fd_sc_hd__o21a_1
*I *238:B1 I *D sky130_fd_sc_hd__o2111ai_1
*I *235:X O *D sky130_fd_sc_hd__or2b_1
*CAP
1 *252:B1 9.8743e-05
2 *238:B1 6.81893e-05
3 *235:X 0.000123519
4 *24:10 0.000290452
5 *238:B1 *239:A_N 5.49489e-05
6 *238:B1 *27:10 0.000266938
7 *238:B1 *28:10 0.000107363
8 *252:B1 *237:B_N 2.85321e-05
9 *252:B1 *252:A1 0.000159029
10 *252:B1 *254:A 6.75725e-05
11 *252:B1 *308:A 6.93626e-06
12 *24:10 *239:A_N 0.000141941
13 *24:10 *252:A1 2.28776e-05
14 *24:10 *30:16 0.000147188
15 *24:10 *67:47 4.02977e-05
16 *242:A1 *252:B1 9.15842e-06
17 *242:A1 *24:10 0.000148376
*RES
1 *235:X *24:10 17.7107 
2 *24:10 *238:B1 16.3893 
3 *24:10 *252:B1 16.5857 
*END

*D_NET *25 0.000869638
*CONN
*I *238:C1 I *D sky130_fd_sc_hd__o2111ai_1
*I *236:X O *D sky130_fd_sc_hd__or2b_1
*CAP
1 *238:C1 0.000242239
2 *236:X 0.000242239
3 *238:C1 *235:A 9.76123e-05
4 *238:C1 *238:D1 5.63882e-05
5 *238:C1 *239:A_N 1.0033e-05
6 *238:C1 *241:B1 0.00013833
7 *238:C1 *67:31 8.25843e-06
8 *252:A2 *238:C1 1.13186e-05
9 *284:D *238:C1 6.32191e-05
*RES
1 *236:X *238:C1 31.9214 
*END

*D_NET *26 0.000297042
*CONN
*I *238:D1 I *D sky130_fd_sc_hd__o2111ai_1
*I *237:X O *D sky130_fd_sc_hd__or2b_1
*CAP
1 *238:D1 5.75559e-05
2 *237:X 5.75559e-05
3 *238:C1 *238:D1 5.63882e-05
4 *284:D *238:D1 0.000125542
*RES
1 *237:X *238:D1 29.2429 
*END

*D_NET *27 0.00191584
*CONN
*I *242:B1 I *D sky130_fd_sc_hd__a2111oi_1
*I *254:A I *D sky130_fd_sc_hd__and2_1
*I *238:Y O *D sky130_fd_sc_hd__o2111ai_1
*CAP
1 *242:B1 0
2 *254:A 0.000261541
3 *238:Y 0.000277467
4 *27:10 0.000539008
5 *254:A *234:A 1.24368e-05
6 *254:A *237:B_N 1.21258e-05
7 *254:A *253:A1 9.10177e-05
8 *254:A *254:B 5.49489e-05
9 *254:A *308:A 0.000101771
10 *27:10 *239:A_N 6.47684e-05
11 *27:10 *242:A2 9.41642e-05
12 *27:10 *253:B1 3.50746e-05
13 *27:10 *28:10 2.69219e-05
14 *238:B1 *27:10 0.000266938
15 *242:A1 *254:A 1.00887e-05
16 *252:B1 *254:A 6.75725e-05
*RES
1 *238:Y *27:10 14.8 
2 *27:10 *254:A 23.2643 
3 *27:10 *242:B1 9.3 
*END

*D_NET *28 0.00159537
*CONN
*I *253:B1 I *D sky130_fd_sc_hd__a21oi_1
*I *242:C1 I *D sky130_fd_sc_hd__a2111oi_1
*I *239:X O *D sky130_fd_sc_hd__and2b_1
*CAP
1 *253:B1 0.000125135
2 *242:C1 0
3 *239:X 0.000402672
4 *28:10 0.000527807
5 *253:B1 *253:A2 0.000109059
6 *253:B1 *308:A 5.6647e-05
7 *28:10 *235:A 0.000178425
8 *28:10 *239:A_N 2.6269e-05
9 *238:B1 *28:10 0.000107363
10 *27:10 *253:B1 3.50746e-05
11 *27:10 *28:10 2.69219e-05
*RES
1 *239:X *28:10 15.3179 
2 *28:10 *242:C1 9.3 
3 *28:10 *253:B1 12.1036 
*END

*D_NET *29 0.00121691
*CONN
*I *241:B2 I *D sky130_fd_sc_hd__a22o_1
*I *240:Y O *D sky130_fd_sc_hd__inv_2
*CAP
1 *241:B2 0.000349086
2 *240:Y 0.000349086
3 *241:B2 *240:A 0.000148383
4 *241:B2 *54:31 4.16517e-05
5 *284:D *241:B2 0.000328708
*RES
1 *240:Y *241:B2 34.4036 
*END

*D_NET *30 0.00150638
*CONN
*I *253:A2 I *D sky130_fd_sc_hd__a21oi_1
*I *242:D1 I *D sky130_fd_sc_hd__a2111oi_1
*I *241:X O *D sky130_fd_sc_hd__a22o_1
*CAP
1 *253:A2 0.000200322
2 *242:D1 0
3 *241:X 0.000235049
4 *30:16 0.000435371
5 *30:16 *235:A 0.000139337
6 *30:16 *239:A_N 6.49987e-05
7 *30:16 *254:B 7.14196e-06
8 *242:A1 *30:16 0.00015312
9 *253:B1 *253:A2 0.000109059
10 *23:6 *30:16 1.4796e-05
11 *24:10 *30:16 0.000147188
*RES
1 *241:X *30:16 23.9071 
2 *30:16 *242:D1 9.3 
3 *30:16 *253:A2 12.7464 
*END

*D_NET *31 0.00114613
*CONN
*I *308:A I *D sky130_fd_sc_hd__clkbuf_1
*I *242:Y O *D sky130_fd_sc_hd__a2111oi_1
*CAP
1 *308:A 0.000369726
2 *242:Y 0.000369726
3 *308:A *256:B1 5.49544e-05
4 *308:A *258:B1 0.000132727
5 *308:A *33:20 5.36422e-05
6 *252:B1 *308:A 6.93626e-06
7 *253:B1 *308:A 5.6647e-05
8 *254:A *308:A 0.000101771
*RES
1 *242:Y *308:A 35.1714 
*END

*D_NET *32 0.00277162
*CONN
*I *251:A2 I *D sky130_fd_sc_hd__a211oi_1
*I *250:A2 I *D sky130_fd_sc_hd__o211ai_1
*I *243:Y O *D sky130_fd_sc_hd__inv_2
*CAP
1 *251:A2 0.000601402
2 *250:A2 0.000208182
3 *243:Y 0
4 *32:4 0.000809585
5 *250:A2 *243:A 7.73855e-05
6 *250:A2 *251:C1 1.03105e-05
7 *251:A2 *244:B 1.56102e-05
8 *251:A2 *247:A 0.000259586
9 *251:A2 *247:C 9.31291e-05
10 *251:A2 *251:A1 9.11048e-06
11 *251:A2 *251:C1 2.33546e-05
12 *251:A2 *258:A2_N 0.000307061
13 *251:A2 *258:B1 3.2033e-05
14 *251:A2 *258:B2 7.58841e-05
15 *251:A2 *82:10 2.21639e-05
16 *297:A *251:A2 0.000226822
*RES
1 *243:Y *32:4 9.3 
2 *32:4 *250:A2 12.2107 
3 *32:4 *251:A2 38.4429 
*END

*D_NET *33 0.00373012
*CONN
*I *257:A1 I *D sky130_fd_sc_hd__o31a_1
*I *247:A I *D sky130_fd_sc_hd__or3_1
*I *244:X O *D sky130_fd_sc_hd__and2b_1
*CAP
1 *257:A1 0
2 *247:A 0.000343983
3 *244:X 0.0005807
4 *33:20 0.000924683
5 *247:A *244:B 0.000104941
6 *247:A *247:B 2.84109e-05
7 *247:A *250:A1 2.83425e-05
8 *247:A *251:A1 2.67489e-05
9 *247:A *83:10 0.000148658
10 *33:20 *244:B 2.71197e-05
11 *33:20 *251:C1 0.000193459
12 *33:20 *255:A 8.43535e-06
13 *33:20 *255:B 6.05161e-06
14 *33:20 *256:A1 9.91549e-05
15 *33:20 *256:B1 0.000182799
16 *33:20 *257:A2 7.22574e-05
17 *33:20 *257:B1 2.41459e-05
18 *33:20 *258:A1_N 0.000148376
19 *33:20 *258:A2_N 0.000100248
20 *33:20 *258:B1 0.000104327
21 *33:20 *258:B2 6.66252e-05
22 *251:A2 *247:A 0.000259586
23 *297:A *247:A 0.000197425
24 *308:A *33:20 5.36422e-05
*RES
1 *244:X *33:20 29.8536 
2 *33:20 *247:A 26.5857 
3 *33:20 *257:A1 9.3 
*END

*D_NET *34 0.00124679
*CONN
*I *247:B I *D sky130_fd_sc_hd__or3_1
*I *255:B I *D sky130_fd_sc_hd__nor3b_1
*I *245:X O *D sky130_fd_sc_hd__and2b_1
*CAP
1 *247:B 0.000200151
2 *255:B 0.000150503
3 *245:X 7.85205e-06
4 *34:8 0.000358506
5 *247:B *247:C 0.000166093
6 *247:B *258:A2_N 2.83853e-05
7 *247:B *82:10 0
8 *255:B *251:C1 5.303e-05
9 *255:B *255:A 5.33005e-05
10 *255:B *258:A2_N 0.000154111
11 *247:A *247:B 2.84109e-05
12 *297:A *247:B 4.03996e-05
13 *33:20 *255:B 6.05161e-06
*RES
1 *245:X *34:8 14.0768 
2 *34:8 *255:B 16.9696 
3 *34:8 *247:B 17.9518 
*END

*D_NET *35 0.00120633
*CONN
*I *247:C I *D sky130_fd_sc_hd__or3_1
*I *246:X O *D sky130_fd_sc_hd__xor2_1
*CAP
1 *247:C 0.000250508
2 *246:X 0.000250508
3 *247:C *245:A_N 2.85234e-05
4 *247:C *245:B 0.000189491
5 *247:C *246:B 4.42177e-05
6 *247:C *251:A1 3.00989e-05
7 *247:C *258:A2_N 0.000137639
8 *247:C *82:10 1.61238e-05
9 *247:B *247:C 0.000166093
10 *251:A2 *247:C 9.31291e-05
*RES
1 *246:X *247:C 34.1 
*END

*D_NET *36 0.00216775
*CONN
*I *251:B1 I *D sky130_fd_sc_hd__a211oi_1
*I *256:B1 I *D sky130_fd_sc_hd__a21oi_1
*I *247:X O *D sky130_fd_sc_hd__or3_1
*CAP
1 *251:B1 0
2 *256:B1 0.000612833
3 *247:X 8.36005e-05
4 *36:8 0.000696434
5 *256:B1 *244:B 7.25873e-06
6 *256:B1 *251:C1 7.74135e-05
7 *256:B1 *255:C_N 0.000120339
8 *256:B1 *306:A 5.33005e-05
9 *256:B1 *82:10 9.15842e-06
10 *36:8 *251:C1 5.90911e-05
11 *36:8 *82:10 0.000188227
12 pwm_out *256:B1 2.23393e-05
13 *308:A *256:B1 5.49544e-05
14 *33:20 *256:B1 0.000182799
*RES
1 *247:X *36:8 16.3536 
2 *36:8 *256:B1 25.55 
3 *36:8 *251:B1 13.8 
*END

*D_NET *37 0.002109
*CONN
*I *256:A1 I *D sky130_fd_sc_hd__a21oi_1
*I *250:B1 I *D sky130_fd_sc_hd__o211ai_1
*I *248:X O *D sky130_fd_sc_hd__or2b_1
*CAP
1 *256:A1 0.000261632
2 *250:B1 0
3 *248:X 0.000382414
4 *37:14 0.000644046
5 *256:A1 *244:A_N 0.00024648
6 *256:A1 *244:B 7.8195e-05
7 *256:A1 *250:C1 3.34324e-05
8 *256:A1 *263:B1 0
9 *256:A1 *266:A 8.25341e-06
10 *37:14 *244:A_N 1.177e-05
11 *37:14 *250:A1 0.000156451
12 *37:14 *250:C1 9.11048e-06
13 *37:14 *266:A 2.62497e-05
14 *37:14 *64:12 0.000151814
15 *33:20 *256:A1 9.91549e-05
*RES
1 *248:X *37:14 21.8 
2 *37:14 *250:B1 13.8 
3 *37:14 *256:A1 19.7821 
*END

*D_NET *38 0.0010777
*CONN
*I *250:C1 I *D sky130_fd_sc_hd__o211ai_1
*I *249:X O *D sky130_fd_sc_hd__or2b_1
*CAP
1 *250:C1 0.000382937
2 *249:X 0.000382937
3 *250:C1 *243:A 4.90315e-05
4 *250:C1 *244:A_N 0.000106315
5 *250:C1 *256:A2 1.9774e-05
6 *250:C1 *39:6 9.41642e-05
7 *256:A1 *250:C1 3.34324e-05
8 *37:14 *250:C1 9.11048e-06
*RES
1 *249:X *250:C1 42.158 
*END

*D_NET *39 0.00298174
*CONN
*I *251:C1 I *D sky130_fd_sc_hd__a211oi_1
*I *256:A2 I *D sky130_fd_sc_hd__a21oi_1
*I *250:Y O *D sky130_fd_sc_hd__o211ai_1
*CAP
1 *251:C1 0.000743104
2 *256:A2 0.000108211
3 *250:Y 8.93947e-05
4 *39:6 0.00094071
5 *251:C1 *243:A 1.24368e-05
6 *251:C1 *255:A 5.49544e-05
7 *251:C1 *255:C_N 5.20669e-05
8 *251:C1 *258:A1_N 4.58194e-05
9 *251:C1 *258:A2_N 1.89846e-05
10 *251:C1 *258:B1 9.67754e-05
11 *256:A2 *244:B 1.50257e-05
12 *256:A2 *257:A3 4.93196e-05
13 *39:6 *243:A 0.000224341
14 *250:A2 *251:C1 1.03105e-05
15 *250:C1 *256:A2 1.9774e-05
16 *250:C1 *39:6 9.41642e-05
17 *251:A2 *251:C1 2.33546e-05
18 *255:B *251:C1 5.303e-05
19 *256:B1 *251:C1 7.74135e-05
20 *33:20 *251:C1 0.000193459
21 *36:8 *251:C1 5.90911e-05
*RES
1 *250:Y *39:6 11.4786 
2 *39:6 *256:A2 20.55 
3 *39:6 *251:C1 39.1214 
*END

*D_NET *40 0.00186966
*CONN
*I *258:A2_N I *D sky130_fd_sc_hd__o2bb2a_1
*I *251:Y O *D sky130_fd_sc_hd__a211oi_1
*CAP
1 *258:A2_N 0.000422467
2 *251:Y 0.000422467
3 *258:A2_N *246:B 2.99876e-05
4 *258:A2_N *258:A1_N 4.58194e-05
5 *247:B *258:A2_N 2.83853e-05
6 *247:C *258:A2_N 0.000137639
7 *251:A2 *258:A2_N 0.000307061
8 *251:C1 *258:A2_N 1.89846e-05
9 *255:B *258:A2_N 0.000154111
10 *297:A *258:A2_N 0.000202496
11 *33:20 *258:A2_N 0.000100248
*RES
1 *251:Y *258:A2_N 37.0464 
*END

*D_NET *41 0.00106276
*CONN
*I *253:A1 I *D sky130_fd_sc_hd__a21oi_1
*I *252:X O *D sky130_fd_sc_hd__o21a_1
*CAP
1 *253:A1 0.000144743
2 *252:X 0.000144743
3 *253:A1 *233:A 0.000239286
4 *253:A1 *234:A 0.000138535
5 *253:A1 *237:B_N 0.000228566
6 *253:A1 *254:B 7.58666e-05
7 *254:A *253:A1 9.10177e-05
*RES
1 *252:X *253:A1 32.7429 
*END

*D_NET *42 0.000583986
*CONN
*I *254:B I *D sky130_fd_sc_hd__and2_1
*I *253:Y O *D sky130_fd_sc_hd__a21oi_1
*CAP
1 *254:B 0.000137402
2 *253:Y 0.000137402
3 *254:B *234:A 0.000171224
4 *253:A1 *254:B 7.58666e-05
5 *254:A *254:B 5.49489e-05
6 *30:16 *254:B 7.14196e-06
*RES
1 *253:Y *254:B 30.9929 
*END

*D_NET *43 0.00147933
*CONN
*I *258:B1 I *D sky130_fd_sc_hd__o2bb2a_1
*I *254:X O *D sky130_fd_sc_hd__and2_1
*CAP
1 *258:B1 0.000386034
2 *254:X 0.000386034
3 *258:B1 *237:B_N 0.000140985
4 *258:B1 *244:B 1.50223e-05
5 *258:B1 *257:B1 6.13812e-05
6 *258:B1 *258:A1_N 0.000124012
7 *251:A2 *258:B1 3.2033e-05
8 *251:C1 *258:B1 9.67754e-05
9 *308:A *258:B1 0.000132727
10 *33:20 *258:B1 0.000104327
*RES
1 *254:X *258:B1 36.4036 
*END

*D_NET *44 0.000374773
*CONN
*I *257:A2 I *D sky130_fd_sc_hd__o31a_1
*I *255:Y O *D sky130_fd_sc_hd__nor3b_1
*CAP
1 *257:A2 5.59436e-05
2 *255:Y 5.59436e-05
3 *257:A2 *255:A 0.000178503
4 *257:A2 *257:B1 1.21258e-05
5 *33:20 *257:A2 7.22574e-05
*RES
1 *255:Y *257:A2 20.3679 
*END

*D_NET *45 0.000859058
*CONN
*I *257:A3 I *D sky130_fd_sc_hd__o31a_1
*I *256:Y O *D sky130_fd_sc_hd__a21oi_1
*CAP
1 *257:A3 0.000236073
2 *256:Y 0.000236073
3 *257:A3 *244:B 0.000337592
4 *256:A2 *257:A3 4.93196e-05
*RES
1 *256:Y *257:A3 32.2071 
*END

*D_NET *46 0.000452528
*CONN
*I *258:B2 I *D sky130_fd_sc_hd__o2bb2a_1
*I *257:X O *D sky130_fd_sc_hd__o31a_1
*CAP
1 *258:B2 9.01602e-05
2 *257:X 9.01602e-05
3 *258:B2 *257:B1 0.00012415
4 *258:B2 *258:A1_N 5.54817e-06
5 *251:A2 *258:B2 7.58841e-05
6 *33:20 *258:B2 6.66252e-05
*RES
1 *257:X *258:B2 29.7786 
*END

*D_NET *47 0.001452
*CONN
*I *261:B1 I *D sky130_fd_sc_hd__o21a_1
*I *260:Y O *D sky130_fd_sc_hd__a21oi_1
*CAP
1 *261:B1 0.000557917
2 *260:Y 0.000557917
3 *261:B1 *259:B 0.000246525
4 *261:B1 *88:36 6.12751e-05
5 *261:B1 *88:47 7.20217e-06
6 *286:A *261:B1 2.11693e-05
*RES
1 *260:Y *261:B1 36.3143 
*END

*D_NET *48 0.00110652
*CONN
*I *264:A I *D sky130_fd_sc_hd__nor2_1
*I *262:Y O *D sky130_fd_sc_hd__a21oi_1
*CAP
1 *264:A 0.000376873
2 *262:Y 0.000376873
3 *264:A *259:B 0.000119486
4 *264:A *262:A1 2.31392e-05
5 *264:A *262:A2 3.08664e-05
6 *264:A *262:B1 4.93118e-06
7 *264:A *60:8 2.07718e-05
8 *264:A *73:31 0.000128394
9 *278:D *264:A 2.51903e-05
*RES
1 *262:Y *264:A 35.1 
*END

*D_NET *49 0.00210155
*CONN
*I *264:B I *D sky130_fd_sc_hd__nor2_1
*I *263:X O *D sky130_fd_sc_hd__a31o_1
*CAP
1 *264:B 0.000425431
2 *263:X 0.000425431
3 *264:B *62:51 0.000353631
4 *264:B *63:6 1.46148e-05
5 *264:B *73:6 0.000745333
6 *280:D *264:B 0.000137109
*RES
1 *263:X *264:B 29.85 
*END

*D_NET *50 0.000749515
*CONN
*I *267:B I *D sky130_fd_sc_hd__nor3_1
*I *265:Y O *D sky130_fd_sc_hd__a31oi_1
*CAP
1 *267:B 0.000119573
2 *265:Y 0.000119573
3 *267:B *260:A2 2.4652e-05
4 *267:B *265:A1 0.000106601
5 *267:B *265:A3 0.000185118
6 *267:B *265:B1 9.70028e-06
7 *281:D *267:B 0.000184297
*RES
1 *265:Y *267:B 22.0107 
*END

*D_NET *51 0.00571255
*CONN
*I *270:A2 I *D sky130_fd_sc_hd__a21oi_1
*I *271:C I *D sky130_fd_sc_hd__and3_1
*I *269:A2 I *D sky130_fd_sc_hd__o21a_1
*I *268:A2 I *D sky130_fd_sc_hd__a21oi_1
*I *267:C I *D sky130_fd_sc_hd__nor3_1
*I *266:X O *D sky130_fd_sc_hd__and4_1
*CAP
1 *270:A2 9.17613e-05
2 *271:C 5.57096e-05
3 *269:A2 0.000591219
4 *268:A2 0.000205389
5 *267:C 7.41572e-05
6 *266:X 0.00025875
7 *51:38 0.000805604
8 *51:34 0.000316074
9 *51:25 0.000389684
10 *51:10 0.000451565
11 *267:C *260:A2 9.99853e-05
12 *267:C *265:A3 9.99853e-05
13 *268:A2 *270:A1 0.000574989
14 *269:A2 *273:B 0.000214773
15 *269:A2 *274:B 0
16 *269:A2 *287:A 0.000363068
17 *270:A2 *270:A1 0.00021443
18 *271:C *68:12 1.79251e-05
19 *51:10 *288:A 3.04597e-05
20 *51:10 *61:40 5.60201e-05
21 *51:25 *287:A 2.93304e-05
22 *51:25 *288:A 5.02214e-05
23 *51:25 *88:59 0
24 *51:34 *270:A1 0.000126075
25 *51:38 *287:A 0.000251164
26 *281:D *51:10 7.14469e-05
27 *283:D *269:A2 0
28 *283:D *51:38 0
29 *284:D *269:A2 0.000216166
30 *286:A *268:A2 5.65955e-05
*RES
1 *266:X *51:10 17.5143 
2 *51:10 *267:C 15.2821 
3 *51:10 *51:25 6.75 
4 *51:25 *268:A2 14.7643 
5 *51:25 *51:34 1.35714 
6 *51:34 *51:38 7.96429 
7 *51:38 *269:A2 25.1125 
8 *51:38 *271:C 14.4071 
9 *51:34 *270:A2 11.4786 
*END

*D_NET *52 0.00427552
*CONN
*I *269:B1 I *D sky130_fd_sc_hd__o21a_1
*I *268:Y O *D sky130_fd_sc_hd__a21oi_1
*CAP
1 *269:B1 0.00124828
2 *268:Y 0.00124828
3 *269:B1 *240:A 0.000334481
4 *269:B1 *270:A1 0.000557057
5 *269:B1 *270:B1 7.58841e-05
6 *269:B1 *272:B 5.49995e-05
7 *269:B1 *272:C 0.000121891
8 *269:B1 *274:B 6.05139e-05
9 *269:B1 *275:A1 1.50223e-05
10 *269:B1 *276:A2 5.33005e-05
11 *269:B1 *276:B1 6.81081e-05
12 *269:B1 *291:A 1.30914e-05
13 *269:B1 *55:17 3.80112e-05
14 *269:B1 *66:14 7.58841e-05
15 *269:B1 *66:36 0.000240202
16 *269:B1 *68:12 6.14702e-06
17 *282:D *269:B1 5.50052e-05
18 *286:A *269:B1 9.35794e-06
*RES
1 *268:Y *269:B1 49.35 
*END

*D_NET *53 0.000891482
*CONN
*I *272:B I *D sky130_fd_sc_hd__nor3_1
*I *270:Y O *D sky130_fd_sc_hd__a21oi_1
*CAP
1 *272:B 0.000212997
2 *270:Y 0.000212997
3 *272:B *249:B_N 5.49995e-05
4 *272:B *260:A2 0
5 *272:B *263:B1 2.02339e-05
6 *272:B *265:A1 4.36243e-05
7 *272:B *265:B1 4.13122e-06
8 *272:B *270:B1 5.74309e-05
9 *272:B *272:C 0.000122796
10 *269:B1 *272:B 5.49995e-05
11 *283:D *272:B 0.000107274
*RES
1 *270:Y *272:B 32.6536 
*END

*D_NET *54 0.00484519
*CONN
*I *272:C I *D sky130_fd_sc_hd__nor3_1
*I *275:A2 I *D sky130_fd_sc_hd__o21a_1
*I *273:B I *D sky130_fd_sc_hd__and2_1
*I *271:X O *D sky130_fd_sc_hd__and3_1
*CAP
1 *272:C 0.000406038
2 *275:A2 0
3 *273:B 0.000320212
4 *271:X 8.00321e-05
5 *54:31 0.000835507
6 *54:10 0.000829713
7 *272:C *249:B_N 3.40823e-05
8 *272:C *265:B1 0
9 *272:C *270:B1 3.64012e-05
10 *272:C *275:B1 7.73352e-05
11 *272:C *65:39 0.000141734
12 *273:B *273:A 0.000141162
13 *273:B *277:B1 5.52302e-05
14 *273:B *287:A 0.000237943
15 *273:B *294:A 9.69349e-05
16 *273:B *55:17 0
17 *273:B *67:19 0.00028241
18 *54:10 *287:A 0.000101777
19 *54:31 *239:A_N 5.45307e-05
20 *54:31 *240:A 5.79582e-06
21 *54:31 *275:A1 0.000219599
22 *54:31 *66:8 6.8377e-06
23 *54:31 *68:27 6.19664e-05
24 *241:B2 *54:31 4.16517e-05
25 *269:A2 *273:B 0.000214773
26 *269:B1 *272:C 0.000121891
27 *272:B *272:C 0.000122796
28 *283:D *272:C 1.02412e-05
29 *283:D *54:31 0.000308595
*RES
1 *271:X *54:10 15.675 
2 *54:10 *273:B 22.3536 
3 *54:10 *54:31 21.7321 
4 *54:31 *275:A2 9.3 
5 *54:31 *272:C 27.1929 
*END

*D_NET *55 0.00264355
*CONN
*I *274:B I *D sky130_fd_sc_hd__nor2_1
*I *276:A2 I *D sky130_fd_sc_hd__a21oi_1
*I *277:A2 I *D sky130_fd_sc_hd__o21a_1
*I *273:X O *D sky130_fd_sc_hd__and2_1
*CAP
1 *274:B 9.06131e-05
2 *276:A2 0.00017786
3 *277:A2 0.000345457
4 *273:X 0
5 *55:17 0.000621933
6 *55:4 0.000698917
7 *276:A2 *276:B1 5.49489e-05
8 *277:A2 *277:B1 0.000257458
9 *55:17 *277:B1 0.0001674
10 *269:A2 *274:B 0
11 *269:B1 *274:B 6.05139e-05
12 *269:B1 *276:A2 5.33005e-05
13 *269:B1 *55:17 3.80112e-05
14 *273:B *55:17 0
15 *282:D *276:A2 3.40802e-05
16 *284:D *276:A2 4.30564e-05
*RES
1 *273:X *55:4 9.3 
2 *55:4 *277:A2 13.9429 
3 *55:4 *55:17 9.64286 
4 *55:17 *276:A2 17.2464 
5 *55:17 *274:B 15.4429 
*END

*D_NET *56 0.00152185
*CONN
*I *275:B1 I *D sky130_fd_sc_hd__o21a_1
*I *274:Y O *D sky130_fd_sc_hd__nor2_1
*CAP
1 *275:B1 0.000248515
2 *274:Y 0.000248515
3 *275:B1 *240:A 0.000258485
4 *275:B1 *291:A 9.96487e-05
5 *275:B1 *65:39 5.24589e-05
6 *275:B1 *66:14 7.74068e-05
7 *275:B1 *66:36 0.000262102
8 *275:B1 *68:12 0.000197385
9 *272:C *275:B1 7.73352e-05
*RES
1 *274:Y *275:B1 35.2071 
*END

*D_NET *57 0.00154679
*CONN
*I *277:B1 I *D sky130_fd_sc_hd__o21a_1
*I *276:Y O *D sky130_fd_sc_hd__a21oi_1
*CAP
1 *277:B1 0.000533349
2 *276:Y 0.000533349
3 *273:B *277:B1 5.52302e-05
4 *277:A2 *277:B1 0.000257458
5 *55:17 *277:B1 0.0001674
*RES
1 *276:Y *277:B1 38.8321 
*END

*D_NET *58 0.00428192
*CONN
*I *288:A I *D sky130_fd_sc_hd__clkbuf_16
*I *287:A I *D sky130_fd_sc_hd__clkbuf_16
*I *286:X O *D sky130_fd_sc_hd__clkbuf_16
*CAP
1 *288:A 0.000734808
2 *287:A 0.000353418
3 *286:X 0
4 *58:6 0.00108823
5 *287:A *276:A1 4.58194e-05
6 *287:A *277:A1 5.20669e-05
7 *287:A *88:59 0.000180066
8 *288:A *260:A2 0.00012367
9 *288:A *265:A1 5.51716e-05
10 *288:A *295:A 0.00021796
11 *288:A *62:47 8.20701e-05
12 *269:A2 *287:A 0.000363068
13 *273:B *287:A 0.000237943
14 *281:D *288:A 0.000284686
15 *283:D *288:A 0
16 *51:10 *288:A 3.04597e-05
17 *51:25 *287:A 2.93304e-05
18 *51:25 *288:A 5.02214e-05
19 *51:38 *287:A 0.000251164
20 *54:10 *287:A 0.000101777
*RES
1 *286:X *58:6 13.8 
2 *58:6 *287:A 23.8893 
3 *58:6 *288:A 29.6571 
*END

*D_NET *59 0.00183739
*CONN
*I *285:CLK I *D sky130_fd_sc_hd__dfxtp_1
*I *283:CLK I *D sky130_fd_sc_hd__dfxtp_1
*I *282:CLK I *D sky130_fd_sc_hd__dfxtp_1
*I *284:CLK I *D sky130_fd_sc_hd__dfxtp_1
*I *287:X O *D sky130_fd_sc_hd__clkbuf_16
*CAP
1 *285:CLK 9.64947e-05
2 *283:CLK 3.24667e-05
3 *282:CLK 0
4 *284:CLK 0.000157324
5 *287:X 0
6 *59:27 0.000211193
7 *59:19 0.000379175
8 *59:6 0.000261278
9 *284:CLK *296:A 2.18345e-05
10 *285:CLK *296:A 1.41642e-05
11 *285:CLK *65:31 5.83246e-05
12 *59:19 *296:A 1.08847e-05
13 *59:27 *65:8 9.67754e-05
14 *282:D *284:CLK 0.000206774
15 *282:D *59:19 0.000147246
16 *282:D *59:27 0.000143453
*RES
1 *287:X *59:6 13.8 
2 *59:6 *284:CLK 17.4964 
3 *59:6 *59:19 2.25 
4 *59:19 *59:27 8.05357 
5 *59:27 *282:CLK 9.3 
6 *59:27 *283:CLK 9.83571 
7 *59:19 *285:CLK 15.7464 
*END

*D_NET *60 0.00279794
*CONN
*I *280:CLK I *D sky130_fd_sc_hd__dfxtp_1
*I *281:CLK I *D sky130_fd_sc_hd__dfxtp_1
*I *278:CLK I *D sky130_fd_sc_hd__dfxtp_2
*I *279:CLK I *D sky130_fd_sc_hd__dfxtp_1
*I *288:X O *D sky130_fd_sc_hd__clkbuf_16
*CAP
1 *280:CLK 0
2 *281:CLK 0.000476961
3 *278:CLK 0
4 *279:CLK 0.000176679
5 *288:X 0.000215343
6 *60:16 0.000325219
7 *60:12 0.000718458
8 *60:8 0.000308299
9 *279:CLK *88:23 1.93007e-05
10 *281:CLK *261:A1 0.000140522
11 *60:8 *73:31 1.08847e-05
12 *60:16 *261:A1 3.13571e-05
13 *264:A *60:8 2.07718e-05
14 *278:D *279:CLK 1.19472e-05
15 *278:D *60:8 0.000111802
16 *278:D *60:12 0.00014852
17 *278:D *60:16 4.87669e-06
18 *279:D *279:CLK 7.6997e-05
*RES
1 *288:X *60:8 17.8714 
2 *60:8 *60:12 6.44643 
3 *60:12 *60:16 2.08929 
4 *60:16 *279:CLK 21.3893 
5 *60:16 *278:CLK 9.3 
6 *60:12 *281:CLK 26.1571 
7 *60:8 *280:CLK 13.8 
*END

*D_NET *61 0.00501339
*CONN
*I *266:D I *D sky130_fd_sc_hd__and4_1
*I *243:A I *D sky130_fd_sc_hd__inv_2
*I *289:A I *D sky130_fd_sc_hd__dlygate4sd3_1
*I *293:A I *D sky130_fd_sc_hd__dlygate4sd3_1
*I *265:A3 I *D sky130_fd_sc_hd__a31oi_1
*I *278:Q O *D sky130_fd_sc_hd__dfxtp_2
*CAP
1 *266:D 0
2 *243:A 0.000290774
3 *289:A 0.000196802
4 *293:A 0
5 *265:A3 0.000294461
6 *278:Q 0.000122346
7 *61:44 0.000562216
8 *61:40 0.000216954
9 *61:33 0.000164313
10 *61:10 0.000438806
11 *243:A *266:A 0.000327792
12 *243:A *266:B 9.67754e-05
13 *265:A3 *260:A2 7.83017e-05
14 *265:A3 *265:B1 0
15 *265:A3 *62:10 9.84229e-05
16 *265:A3 *62:14 5.73473e-05
17 *265:A3 *62:43 4.17433e-05
18 *265:A3 *88:47 6.69271e-05
19 *289:A *263:A3 0.000244121
20 *289:A *265:A1 1.46689e-05
21 *289:A *265:B1 0.000168197
22 *289:A *62:51 9.83388e-05
23 *289:A *63:21 9.83388e-05
24 *289:A *63:25 5.15637e-05
25 *61:33 *62:43 5.49544e-05
26 *61:40 *62:43 0.000143375
27 *61:40 *62:84 0.000252775
28 *61:44 *249:B_N 4.58194e-05
29 *61:44 *263:A3 8.43535e-06
30 *61:44 *266:B 5.33005e-05
31 *61:44 *62:84 2.12005e-05
32 *250:A2 *243:A 7.73855e-05
33 *250:C1 *243:A 4.90315e-05
34 *251:C1 *243:A 1.24368e-05
35 *267:B *265:A3 0.000185118
36 *267:C *265:A3 9.99853e-05
37 *39:6 *243:A 0.000224341
38 *51:10 *61:40 5.60201e-05
*RES
1 *278:Q *61:10 19.9429 
2 *61:10 *265:A3 25.8893 
3 *61:10 *61:33 0.535714 
4 *61:33 *293:A 9.3 
5 *61:33 *61:40 3.82143 
6 *61:40 *61:44 1.78571 
7 *61:44 *289:A 24.2286 
8 *61:44 *243:A 17.675 
9 *61:40 *266:D 9.3 
*END

*D_NET *62 0.0087305
*CONN
*I *266:C I *D sky130_fd_sc_hd__and4_1
*I *249:B_N I *D sky130_fd_sc_hd__or2b_1
*I *262:A1 I *D sky130_fd_sc_hd__a21oi_1
*I *263:A2 I *D sky130_fd_sc_hd__a31o_1
*I *248:A I *D sky130_fd_sc_hd__or2b_1
*I *261:A1 I *D sky130_fd_sc_hd__o21a_1
*I *260:A1 I *D sky130_fd_sc_hd__a21oi_1
*I *265:A2 I *D sky130_fd_sc_hd__a31oi_1
*I *279:Q O *D sky130_fd_sc_hd__dfxtp_1
*CAP
1 *266:C 0
2 *249:B_N 0.000273745
3 *262:A1 0.000393668
4 *263:A2 0
5 *248:A 0.000260924
6 *261:A1 0.000341533
7 *260:A1 0
8 *265:A2 0.000350091
9 *279:Q 2.22847e-05
10 *62:84 0.000383632
11 *62:51 0.000409902
12 *62:47 0.000764495
13 *62:43 0.000442118
14 *62:14 0.000523288
15 *62:10 0.000644992
16 *62:6 0.000262928
17 *248:A *249:A 9.14222e-05
18 *248:A *80:10 3.8206e-05
19 *249:B_N *260:A2 3.08614e-05
20 *249:B_N *263:B1 6.14702e-06
21 *249:B_N *265:A1 0.000133923
22 *249:B_N *265:B1 0.000200943
23 *262:A1 *262:B1 0.000317142
24 *262:A1 *295:A 0.000121254
25 *265:A2 *260:A2 0.00047734
26 *265:A2 *88:47 2.14173e-05
27 *62:47 *295:A 5.54655e-05
28 *62:51 *63:6 2.59355e-05
29 *62:51 *63:21 0.000175517
30 *62:51 *63:57 6.05161e-06
31 *62:84 *263:A3 0.000127651
32 *62:84 *77:6 5.49489e-05
33 *264:A *262:A1 2.31392e-05
34 *264:B *62:51 0.000353631
35 *265:A3 *62:10 9.84229e-05
36 *265:A3 *62:14 5.73473e-05
37 *265:A3 *62:43 4.17433e-05
38 *272:B *249:B_N 5.49995e-05
39 *272:C *249:B_N 3.40823e-05
40 *278:D *261:A1 1.74816e-05
41 *279:D *261:A1 9.58126e-05
42 *281:CLK *261:A1 0.000140522
43 *281:D *62:47 0.000125599
44 *288:A *62:47 8.20701e-05
45 *289:A *62:51 9.83388e-05
46 *60:16 *261:A1 3.13571e-05
47 *61:33 *62:43 5.49544e-05
48 *61:40 *62:43 0.000143375
49 *61:40 *62:84 0.000252775
50 *61:44 *249:B_N 4.58194e-05
51 *61:44 *62:84 2.12005e-05
*RES
1 *279:Q *62:6 9.72857 
2 *62:6 *62:10 6.67857 
3 *62:10 *62:14 7.66071 
4 *62:14 *265:A2 14.675 
5 *62:14 *260:A1 9.3 
6 *62:10 *261:A1 20.1036 
7 *62:6 *62:43 2.17857 
8 *62:43 *62:47 9.17857 
9 *62:47 *62:51 9.14286 
10 *62:51 *248:A 22.8179 
11 *62:51 *263:A2 9.3 
12 *62:47 *262:A1 19.8 
13 *62:43 *62:84 3 
14 *62:84 *249:B_N 33.0143 
15 *62:84 *266:C 9.3 
*END

*D_NET *63 0.00652862
*CONN
*I *255:A I *D sky130_fd_sc_hd__nor3b_1
*I *246:A I *D sky130_fd_sc_hd__xor2_1
*I *263:A1 I *D sky130_fd_sc_hd__a31o_1
*I *266:B I *D sky130_fd_sc_hd__and4_1
*I *265:A1 I *D sky130_fd_sc_hd__a31oi_1
*I *295:A I *D sky130_fd_sc_hd__dlygate4sd3_1
*I *280:Q O *D sky130_fd_sc_hd__dfxtp_1
*CAP
1 *255:A 0.000470728
2 *246:A 0
3 *263:A1 0
4 *266:B 4.17668e-05
5 *265:A1 0.00037475
6 *295:A 0.000245297
7 *280:Q 5.88501e-05
8 *63:64 0.000715031
9 *63:57 0.000300833
10 *63:25 0.000532197
11 *63:21 0.000403066
12 *63:6 0.000535003
13 *255:A *244:B 2.39441e-05
14 *255:A *245:B 0.000155588
15 *255:A *246:B 1.83053e-05
16 *255:A *250:A1 7.54384e-05
17 *255:A *257:B1 1.83778e-05
18 *255:A *64:38 1.32056e-05
19 *265:A1 *260:A2 7.92969e-05
20 *265:A1 *263:B1 0.000146991
21 *265:A1 *265:B1 5.78535e-05
22 *266:B *263:A3 4.11572e-05
23 *266:B *266:A 5.49995e-05
24 *63:25 *249:A 1.12578e-05
25 *63:25 *263:A3 0.000220357
26 *63:25 *263:B1 0.000308732
27 *63:57 *263:B1 4.75114e-05
28 *63:64 *263:B1 1.21258e-05
29 *243:A *266:B 9.67754e-05
30 *249:B_N *265:A1 0.000133923
31 *251:C1 *255:A 5.49544e-05
32 *255:B *255:A 5.33005e-05
33 *257:A2 *255:A 0.000178503
34 *262:A1 *295:A 0.000121254
35 *264:B *63:6 1.46148e-05
36 *267:B *265:A1 0.000106601
37 *272:B *265:A1 4.36243e-05
38 *288:A *265:A1 5.51716e-05
39 *288:A *295:A 0.00021796
40 *289:A *265:A1 1.46689e-05
41 *289:A *63:21 9.83388e-05
42 *289:A *63:25 5.15637e-05
43 *33:20 *255:A 8.43535e-06
44 *61:44 *266:B 5.33005e-05
45 *62:47 *295:A 5.54655e-05
46 *62:51 *63:6 2.59355e-05
47 *62:51 *63:21 0.000175517
48 *62:51 *63:57 6.05161e-06
*RES
1 *280:Q *63:6 10.2464 
2 *63:6 *295:A 23.3357 
3 *63:6 *63:21 4.23214 
4 *63:21 *63:25 8.875 
5 *63:25 *265:A1 29.425 
6 *63:25 *266:B 15.1571 
7 *63:21 *63:57 1.26786 
8 *63:57 *263:A1 9.3 
9 *63:57 *63:64 3.82143 
10 *63:64 *246:A 9.3 
11 *63:64 *255:A 26.6929 
*END

*D_NET *64 0.00391947
*CONN
*I *245:B I *D sky130_fd_sc_hd__and2b_1
*I *290:A I *D sky130_fd_sc_hd__dlygate4sd3_1
*I *244:A_N I *D sky130_fd_sc_hd__and2b_1
*I *266:A I *D sky130_fd_sc_hd__and4_1
*I *281:Q O *D sky130_fd_sc_hd__dfxtp_1
*CAP
1 *245:B 0.000224149
2 *290:A 0
3 *244:A_N 0.000159823
4 *266:A 0.000187375
5 *281:Q 0.000160577
6 *64:38 0.000318058
7 *64:12 0.000415926
8 *64:8 0.000323215
9 *244:A_N *250:A1 2.23393e-05
10 *245:B *244:B 0.000135802
11 *245:B *246:B 0.000269846
12 *245:B *250:A1 1.50257e-05
13 *266:A *263:A3 0.000179245
14 *64:8 *265:B1 3.08664e-05
15 *64:12 *250:A1 0.000185265
16 *243:A *266:A 0.000327792
17 *247:C *245:B 0.000189491
18 *250:C1 *244:A_N 0.000106315
19 *255:A *245:B 0.000155588
20 *255:A *64:38 1.32056e-05
21 *256:A1 *244:A_N 0.00024648
22 *256:A1 *266:A 8.25341e-06
23 *266:B *266:A 5.49995e-05
24 *37:14 *244:A_N 1.177e-05
25 *37:14 *266:A 2.62497e-05
26 *37:14 *64:12 0.000151814
*RES
1 *281:Q *64:8 11.9071 
2 *64:8 *64:12 6.90179 
3 *64:12 *266:A 18.4339 
4 *64:12 *244:A_N 17.7554 
5 *64:8 *64:38 1.35714 
6 *64:38 *290:A 9.3 
7 *64:38 *245:B 24.8893 
*END

*D_NET *65 0.00979708
*CONN
*I *270:A1 I *D sky130_fd_sc_hd__a21oi_1
*I *268:A1 I *D sky130_fd_sc_hd__a21oi_1
*I *271:B I *D sky130_fd_sc_hd__and3_1
*I *242:A2 I *D sky130_fd_sc_hd__a2111oi_1
*I *237:A I *D sky130_fd_sc_hd__or2b_1
*I *296:A I *D sky130_fd_sc_hd__dlygate4sd3_1
*I *282:Q O *D sky130_fd_sc_hd__dfxtp_1
*CAP
1 *270:A1 0.000233551
2 *268:A1 2.94361e-05
3 *271:B 0
4 *242:A2 0.00025592
5 *237:A 2.22847e-05
6 *296:A 0.000741147
7 *282:Q 0.000372416
8 *65:74 0.0004129
9 *65:39 0.00075577
10 *65:35 0.00108473
11 *65:31 0.000878349
12 *65:8 0.00123483
13 *242:A2 *237:B_N 5.33005e-05
14 *242:A2 *252:A1 0.000124749
15 *296:A *67:8 5.60962e-05
16 *65:35 *68:12 0.000117195
17 *65:39 *240:A 3.27732e-05
18 *65:39 *270:B1 0.000138381
19 *65:39 *66:36 4.37451e-05
20 *65:39 *68:12 0.000308595
21 *252:A2 *242:A2 0.000225385
22 *268:A2 *270:A1 0.000574989
23 *269:B1 *270:A1 0.000557057
24 *270:A2 *270:A1 0.00021443
25 *272:C *65:39 0.000141734
26 *275:B1 *65:39 5.24589e-05
27 *282:D *296:A 0.000343669
28 *284:CLK *296:A 2.18345e-05
29 *284:D *296:A 0.000247805
30 *285:CLK *296:A 1.41642e-05
31 *285:CLK *65:31 5.83246e-05
32 *285:D *65:35 4.80961e-05
33 *286:A *268:A1 5.65955e-05
34 *286:A *270:A1 1.64621e-05
35 *27:10 *242:A2 9.41642e-05
36 *51:34 *270:A1 0.000126075
37 *59:19 *296:A 1.08847e-05
38 *59:27 *65:8 9.67754e-05
*RES
1 *282:Q *65:8 18.0321 
2 *65:8 *296:A 27.8179 
3 *65:8 *65:31 2.55357 
4 *65:31 *65:35 12.0179 
5 *65:35 *65:39 9.17857 
6 *65:39 *237:A 9.72857 
7 *65:39 *242:A2 23.2643 
8 *65:35 *271:B 9.3 
9 *65:31 *65:74 6.80357 
10 *65:74 *268:A1 10.2643 
11 *65:74 *270:A1 19.7107 
*END

*D_NET *66 0.00314262
*CONN
*I *292:A I *D sky130_fd_sc_hd__dlygate4sd3_1
*I *271:A I *D sky130_fd_sc_hd__and3_1
*I *236:A I *D sky130_fd_sc_hd__or2b_1
*I *241:B1 I *D sky130_fd_sc_hd__a22o_1
*I *283:Q O *D sky130_fd_sc_hd__dfxtp_1
*CAP
1 *292:A 0
2 *271:A 0.000113138
3 *236:A 0
4 *241:B1 0.000119615
5 *283:Q 0.000195887
6 *66:36 0.000250385
7 *66:14 0.000310956
8 *66:8 0.000524475
9 *241:B1 *67:31 0.000240006
10 *271:A *68:12 9.33439e-05
11 *66:8 *294:A 5.65955e-05
12 *66:8 *68:27 9.41642e-05
13 *66:14 *67:31 0.000198233
14 *66:36 *68:12 6.45583e-05
15 *238:C1 *241:B1 0.00013833
16 *241:A2 *241:B1 4.88363e-06
17 *269:B1 *66:14 7.58841e-05
18 *269:B1 *66:36 0.000240202
19 *275:B1 *66:14 7.74068e-05
20 *275:B1 *66:36 0.000262102
21 *283:D *66:8 3.18747e-05
22 *54:31 *66:8 6.8377e-06
23 *65:39 *66:36 4.37451e-05
*RES
1 *283:Q *66:8 16.3893 
2 *66:8 *66:14 7.71429 
3 *66:14 *241:B1 12.6393 
4 *66:14 *236:A 9.3 
5 *66:8 *66:36 9.01786 
6 *66:36 *271:A 11.4964 
7 *66:36 *292:A 9.3 
*END

*D_NET *67 0.0060386
*CONN
*I *294:A I *D sky130_fd_sc_hd__dlygate4sd3_1
*I *241:A1 I *D sky130_fd_sc_hd__a22o_1
*I *252:A1 I *D sky130_fd_sc_hd__o21a_1
*I *238:A1 I *D sky130_fd_sc_hd__o2111ai_1
*I *273:A I *D sky130_fd_sc_hd__and2_1
*I *284:Q O *D sky130_fd_sc_hd__dfxtp_1
*CAP
1 *294:A 0.000239926
2 *241:A1 0
3 *252:A1 0.000179538
4 *238:A1 2.52608e-06
5 *273:A 9.69185e-05
6 *284:Q 7.54184e-05
7 *67:47 0.000651714
8 *67:31 0.000882588
9 *67:19 0.000835479
10 *67:8 0.000354952
11 *252:A1 *237:B_N 5.33005e-05
12 *273:A *277:A1 0
13 *67:31 *276:B1 5.16616e-05
14 *67:31 *291:A 9.83388e-05
15 *67:31 *85:10 0.000328247
16 *67:31 *88:59 0.000221178
17 *238:C1 *67:31 8.25843e-06
18 *241:A2 *67:31 8.48678e-06
19 *241:B1 *67:31 0.000240006
20 *242:A2 *252:A1 0.000124749
21 *252:A2 *238:A1 1.21832e-05
22 *252:A2 *252:A1 3.97796e-05
23 *252:A2 *67:47 4.42051e-05
24 *252:B1 *252:A1 0.000159029
25 *273:B *273:A 0.000141162
26 *273:B *294:A 9.69349e-05
27 *273:B *67:19 0.00028241
28 *283:D *294:A 0.000137858
29 *284:D *67:8 1.30607e-05
30 *284:D *67:47 0.000111169
31 *296:A *67:8 5.60962e-05
32 *23:19 *67:47 0.000173426
33 *24:10 *252:A1 2.28776e-05
34 *24:10 *67:47 4.02977e-05
35 *66:8 *294:A 5.65955e-05
36 *66:14 *67:31 0.000198233
*RES
1 *284:Q *67:8 14.7464 
2 *67:8 *273:A 15.7464 
3 *67:8 *67:19 3.76786 
4 *67:19 *67:31 15.0714 
5 *67:31 *67:47 21.9018 
6 *67:47 *238:A1 14.0768 
7 *67:47 *252:A1 18.2375 
8 *67:31 *241:A1 9.3 
9 *67:19 *294:A 18.5857 
*END

*D_NET *68 0.00418542
*CONN
*I *235:A I *D sky130_fd_sc_hd__or2b_1
*I *239:B I *D sky130_fd_sc_hd__and2b_1
*I *291:A I *D sky130_fd_sc_hd__dlygate4sd3_1
*I *285:Q O *D sky130_fd_sc_hd__dfxtp_1
*CAP
1 *235:A 0.000304521
2 *239:B 0
3 *291:A 0.000114833
4 *285:Q 0.000288894
5 *68:27 0.00049535
6 *68:12 0.000594556
7 *235:A *239:A_N 0.000374065
8 *291:A *276:B1 2.37871e-05
9 *291:A *88:59 5.65955e-05
10 *68:27 *239:A_N 0.000143375
11 *238:C1 *235:A 9.76123e-05
12 *241:A2 *235:A 1.13883e-05
13 *269:B1 *291:A 1.30914e-05
14 *269:B1 *68:12 6.14702e-06
15 *271:A *68:12 9.33439e-05
16 *271:C *68:12 1.79251e-05
17 *275:B1 *291:A 9.96487e-05
18 *275:B1 *68:12 0.000197385
19 *283:D *68:12 0.000190322
20 *28:10 *235:A 0.000178425
21 *30:16 *235:A 0.000139337
22 *54:31 *68:27 6.19664e-05
23 *65:35 *68:12 0.000117195
24 *65:39 *68:12 0.000308595
25 *66:8 *68:27 9.41642e-05
26 *66:36 *68:12 6.45583e-05
27 *67:31 *291:A 9.83388e-05
*RES
1 *285:Q *68:12 22.4429 
2 *68:12 *291:A 16.6929 
3 *68:12 *68:27 7.91071 
4 *68:27 *239:B 9.3 
5 *68:27 *235:A 24.4071 
*END

*D_NET *69 0.00239506
*CONN
*I *251:A1 I *D sky130_fd_sc_hd__a211oi_1
*I *250:A1 I *D sky130_fd_sc_hd__o211ai_1
*I *297:X O *D sky130_fd_sc_hd__clkbuf_1
*CAP
1 *251:A1 0.000212046
2 *250:A1 0.000632124
3 *297:X 0
4 *69:4 0.00084417
5 *251:A1 *82:10 7.6997e-05
6 *244:A_N *250:A1 2.23393e-05
7 *245:B *250:A1 1.50257e-05
8 *247:A *250:A1 2.83425e-05
9 *247:A *251:A1 2.67489e-05
10 *247:C *251:A1 3.00989e-05
11 *251:A2 *251:A1 9.11048e-06
12 *255:A *250:A1 7.54384e-05
13 *297:A *250:A1 2.85321e-05
14 *297:A *251:A1 5.23735e-05
15 *37:14 *250:A1 0.000156451
16 *64:12 *250:A1 0.000185265
*RES
1 *297:X *69:4 9.3 
2 *69:4 *250:A1 29.0321 
3 *69:4 *251:A1 21.5143 
*END

*D_NET *70 0.000202643
*CONN
*I *307:A I *D sky130_fd_sc_hd__buf_2
*I *258:X O *D sky130_fd_sc_hd__o2bb2a_1
*CAP
1 *307:A 0.000101322
2 *258:X 0.000101322
*RES
1 *258:X *307:A 20.2786 
*END

*D_NET *71 0.00101683
*CONN
*I *257:B1 I *D sky130_fd_sc_hd__o31a_1
*I *306:X O *D sky130_fd_sc_hd__clkbuf_1
*CAP
1 *257:B1 0.000254826
2 *306:X 0.000254826
3 *257:B1 *244:B 0.000262581
4 *257:B1 *258:A1_N 4.41329e-06
5 *255:A *257:B1 1.83778e-05
6 *257:A2 *257:B1 1.21258e-05
7 *258:B1 *257:B1 6.13812e-05
8 *258:B2 *257:B1 0.00012415
9 *33:20 *257:B1 2.41459e-05
*RES
1 *306:X *257:B1 33.1536 
*END

*D_NET *72 0.000799194
*CONN
*I *258:A1_N I *D sky130_fd_sc_hd__o2bb2a_1
*I *306:A I *D sky130_fd_sc_hd__clkbuf_1
*I *308:X O *D sky130_fd_sc_hd__clkbuf_1
*CAP
1 *258:A1_N 9.8666e-05
2 *306:A 8.72865e-05
3 *308:X 0
4 *72:4 0.000185952
5 *251:C1 *258:A1_N 4.58194e-05
6 *256:B1 *306:A 5.33005e-05
7 *257:B1 *258:A1_N 4.41329e-06
8 *258:A2_N *258:A1_N 4.58194e-05
9 *258:B1 *258:A1_N 0.000124012
10 *258:B2 *258:A1_N 5.54817e-06
11 *33:20 *258:A1_N 0.000148376
*RES
1 *308:X *72:4 9.3 
2 *72:4 *306:A 10.8714 
3 *72:4 *258:A1_N 21.2062 
*END

*D_NET *73 0.003708
*CONN
*I *262:A2 I *D sky130_fd_sc_hd__a21oi_1
*I *259:A I *D sky130_fd_sc_hd__nor2_1
*I *261:A2 I *D sky130_fd_sc_hd__o21a_1
*I *289:X O *D sky130_fd_sc_hd__dlygate4sd3_1
*CAP
1 *262:A2 2.03228e-05
2 *259:A 0
3 *261:A2 0.000376944
4 *289:X 0.000518792
5 *73:31 0.000167343
6 *73:6 0.00104276
7 *261:A2 *259:B 0.000201442
8 *73:31 *259:B 0.000182683
9 *264:A *262:A2 3.08664e-05
10 *264:A *73:31 0.000128394
11 *264:B *73:6 0.000745333
12 *278:D *73:31 0.00025862
13 *279:D *261:A2 9.00535e-06
14 *280:D *261:A2 4.85049e-06
15 *280:D *73:6 9.76435e-06
16 *60:8 *73:31 1.08847e-05
*RES
1 *289:X *73:6 16.8179 
2 *73:6 *261:A2 23.9786 
3 *73:6 *73:31 13.3571 
4 *73:31 *259:A 9.3 
5 *73:31 *262:A2 9.83571 
*END

*D_NET *74 0.00176101
*CONN
*I *265:B1 I *D sky130_fd_sc_hd__a31oi_1
*I *290:X O *D sky130_fd_sc_hd__dlygate4sd3_1
*CAP
1 *265:B1 0.00054214
2 *290:X 0.00054214
3 *265:B1 *260:A2 0
4 *265:B1 *263:A3 0.000175892
5 *249:B_N *265:B1 0.000200943
6 *265:A1 *265:B1 5.78535e-05
7 *265:A3 *265:B1 0
8 *267:B *265:B1 9.70028e-06
9 *272:B *265:B1 4.13122e-06
10 *272:C *265:B1 0
11 *283:D *265:B1 2.91494e-05
12 *289:A *265:B1 0.000168197
13 *64:8 *265:B1 3.08664e-05
*RES
1 *290:X *265:B1 37.8321 
*END

*D_NET *75 0.00270743
*CONN
*I *276:A1 I *D sky130_fd_sc_hd__a21oi_1
*I *277:A1 I *D sky130_fd_sc_hd__o21a_1
*I *291:X O *D sky130_fd_sc_hd__dlygate4sd3_1
*CAP
1 *276:A1 0.00052515
2 *277:A1 0.00050654
3 *291:X 0
4 *75:4 0.00103169
5 *276:A1 *276:B1 0.000344014
6 *276:A1 *85:10 1.98839e-05
7 *276:A1 *88:59 0.000120985
8 *277:A1 *88:59 6.12751e-05
9 *273:A *277:A1 0
10 *285:D *277:A1 0
11 *287:A *276:A1 4.58194e-05
12 *287:A *277:A1 5.20669e-05
*RES
1 *291:X *75:4 9.3 
2 *75:4 *277:A1 25.2643 
3 *75:4 *276:A1 25.6214 
*END

*D_NET *76 0.000673921
*CONN
*I *270:B1 I *D sky130_fd_sc_hd__a21oi_1
*I *292:X O *D sky130_fd_sc_hd__dlygate4sd3_1
*CAP
1 *270:B1 0.000170008
2 *292:X 0.000170008
3 *269:B1 *270:B1 7.58841e-05
4 *272:B *270:B1 5.74309e-05
5 *272:C *270:B1 3.64012e-05
6 *283:D *270:B1 2.58081e-05
7 *65:39 *270:B1 0.000138381
*RES
1 *292:X *270:B1 30.9036 
*END

*D_NET *77 0.00416564
*CONN
*I *263:A3 I *D sky130_fd_sc_hd__a31o_1
*I *260:A2 I *D sky130_fd_sc_hd__a21oi_1
*I *293:X O *D sky130_fd_sc_hd__dlygate4sd3_1
*CAP
1 *263:A3 0.000595907
2 *260:A2 0.000375878
3 *293:X 3.98109e-05
4 *77:6 0.0010116
5 *260:A2 *272:A 1.32386e-05
6 *260:A2 *88:47 7.97182e-05
7 *263:A3 *249:A 8.35729e-05
8 *249:B_N *260:A2 3.08614e-05
9 *265:A1 *260:A2 7.92969e-05
10 *265:A2 *260:A2 0.00047734
11 *265:A3 *260:A2 7.83017e-05
12 *265:B1 *260:A2 0
13 *265:B1 *263:A3 0.000175892
14 *266:A *263:A3 0.000179245
15 *266:B *263:A3 4.11572e-05
16 *267:B *260:A2 2.4652e-05
17 *267:C *260:A2 9.99853e-05
18 *272:B *260:A2 0
19 *288:A *260:A2 0.00012367
20 *289:A *263:A3 0.000244121
21 *61:44 *263:A3 8.43535e-06
22 *62:84 *263:A3 0.000127651
23 *62:84 *77:6 5.49489e-05
24 *63:25 *263:A3 0.000220357
*RES
1 *293:X *77:6 9.83571 
2 *77:6 *260:A2 28.2107 
3 *77:6 *263:A3 37.4964 
*END

*D_NET *78 0.000530537
*CONN
*I *275:A1 I *D sky130_fd_sc_hd__o21a_1
*I *294:X O *D sky130_fd_sc_hd__dlygate4sd3_1
*CAP
1 *275:A1 0.000130843
2 *294:X 0.000130843
3 *275:A1 *240:A 3.42301e-05
4 *269:B1 *275:A1 1.50223e-05
5 *54:31 *275:A1 0.000219599
*RES
1 *294:X *275:A1 30.1893 
*END

*D_NET *79 0.000572323
*CONN
*I *262:B1 I *D sky130_fd_sc_hd__a21oi_1
*I *295:X O *D sky130_fd_sc_hd__dlygate4sd3_1
*CAP
1 *262:B1 0.000125125
2 *295:X 0.000125125
3 *262:A1 *262:B1 0.000317142
4 *264:A *262:B1 4.93118e-06
*RES
1 *295:X *262:B1 22.0107 
*END

*D_NET *80 0.00194259
*CONN
*I *248:B_N I *D sky130_fd_sc_hd__or2b_1
*I *249:A I *D sky130_fd_sc_hd__or2b_1
*I *298:X O *D sky130_fd_sc_hd__clkbuf_1
*CAP
1 *248:B_N 0
2 *249:A 0.00040508
3 *298:X 0.000221058
4 *80:10 0.000626138
5 *249:A *263:B1 0.000446558
6 *248:A *249:A 9.14222e-05
7 *248:A *80:10 3.8206e-05
8 *263:A3 *249:A 8.35729e-05
9 *298:A *80:10 1.93007e-05
10 *63:25 *249:A 1.12578e-05
*RES
1 *298:X *80:10 17.1036 
2 *80:10 *249:A 22.7286 
3 *80:10 *248:B_N 13.8 
*END

*D_NET *81 0.000105515
*CONN
*I *269:A1 I *D sky130_fd_sc_hd__o21a_1
*I *296:X O *D sky130_fd_sc_hd__dlygate4sd3_1
*CAP
1 *269:A1 9.02664e-06
2 *296:X 9.02664e-06
3 *282:D *269:A1 3.08664e-05
4 *284:D *269:A1 5.65955e-05
*RES
1 *296:X *269:A1 19.1357 
*END

*D_NET *82 0.00286259
*CONN
*I *246:B I *D sky130_fd_sc_hd__xor2_1
*I *255:C_N I *D sky130_fd_sc_hd__nor3b_1
*I *299:X O *D sky130_fd_sc_hd__buf_1
*CAP
1 *246:B 0.000544678
2 *255:C_N 0.000126666
3 *299:X 0.000277166
4 *82:10 0.000948509
5 *82:10 *83:10 9.78579e-05
6 *245:B *246:B 0.000269846
7 *247:B *82:10 0
8 *247:C *246:B 4.42177e-05
9 *247:C *82:10 1.61238e-05
10 *251:A1 *82:10 7.6997e-05
11 *251:A2 *82:10 2.21639e-05
12 *251:C1 *255:C_N 5.20669e-05
13 *255:A *246:B 1.83053e-05
14 *256:B1 *255:C_N 0.000120339
15 *256:B1 *82:10 9.15842e-06
16 *258:A2_N *246:B 2.99876e-05
17 *299:A *82:10 2.02794e-05
18 *36:8 *82:10 0.000188227
*RES
1 *299:X *82:10 19.7286 
2 *82:10 *255:C_N 16.3893 
3 *82:10 *246:B 20.8179 
*END

*D_NET *83 0.00335812
*CONN
*I *245:A_N I *D sky130_fd_sc_hd__and2b_1
*I *244:B I *D sky130_fd_sc_hd__and2b_1
*I *300:X O *D sky130_fd_sc_hd__clkbuf_1
*CAP
1 *245:A_N 6.48066e-05
2 *244:B 0.000494698
3 *300:X 0.000456228
4 *83:10 0.00101573
5 *245:B *244:B 0.000135802
6 *247:A *244:B 0.000104941
7 *247:A *83:10 0.000148658
8 *247:C *245:A_N 2.85234e-05
9 *251:A2 *244:B 1.56102e-05
10 *255:A *244:B 2.39441e-05
11 *256:A1 *244:B 7.8195e-05
12 *256:A2 *244:B 1.50257e-05
13 *256:B1 *244:B 7.25873e-06
14 *257:A3 *244:B 0.000337592
15 *257:B1 *244:B 0.000262581
16 *258:B1 *244:B 1.50223e-05
17 *299:A *83:10 2.85234e-05
18 *33:20 *244:B 2.71197e-05
19 *82:10 *83:10 9.78579e-05
*RES
1 *300:X *83:10 22.2107 
2 *83:10 *244:B 26.4429 
3 *83:10 *245:A_N 14.7643 
*END

*D_NET *84 0.00256265
*CONN
*I *233:A I *D sky130_fd_sc_hd__inv_2
*I *237:B_N I *D sky130_fd_sc_hd__or2b_1
*I *301:X O *D sky130_fd_sc_hd__buf_1
*CAP
1 *233:A 0.000423524
2 *237:B_N 0.000238544
3 *301:X 0.000126242
4 *84:12 0.00078831
5 *233:A *234:A 9.61943e-05
6 *233:A *85:10 3.2316e-05
7 *242:A2 *237:B_N 5.33005e-05
8 *252:A1 *237:B_N 5.33005e-05
9 *252:A2 *237:B_N 2.8451e-05
10 *252:B1 *237:B_N 2.85321e-05
11 *253:A1 *233:A 0.000239286
12 *253:A1 *237:B_N 0.000228566
13 *254:A *237:B_N 1.21258e-05
14 *258:B1 *237:B_N 0.000140985
15 *301:A *84:12 1.84433e-05
16 *23:6 *233:A 5.45307e-05
*RES
1 *301:X *84:12 20.175 
2 *84:12 *237:B_N 14.925 
3 *84:12 *233:A 27.1393 
*END

*D_NET *85 0.00450198
*CONN
*I *236:B_N I *D sky130_fd_sc_hd__or2b_1
*I *240:A I *D sky130_fd_sc_hd__inv_2
*I *302:X O *D sky130_fd_sc_hd__buf_1
*CAP
1 *236:B_N 0
2 *240:A 0.000643746
3 *302:X 0.000696576
4 *85:10 0.00134032
5 *85:10 *276:B1 5.49489e-05
6 *233:A *85:10 3.2316e-05
7 *241:A2 *85:10 9.91549e-05
8 *241:B2 *240:A 0.000148383
9 *269:B1 *240:A 0.000334481
10 *275:A1 *240:A 3.42301e-05
11 *275:B1 *240:A 0.000258485
12 *276:A1 *85:10 1.98839e-05
13 *23:6 *85:10 0.000472641
14 *54:31 *240:A 5.79582e-06
15 *65:39 *240:A 3.27732e-05
16 *67:31 *85:10 0.000328247
*RES
1 *302:X *85:10 20.55 
2 *85:10 *240:A 39.3357 
3 *85:10 *236:B_N 9.3 
*END

*D_NET *86 0.000855187
*CONN
*I *234:A I *D sky130_fd_sc_hd__inv_2
*I *303:X O *D sky130_fd_sc_hd__clkbuf_1
*CAP
1 *234:A 0.000216562
2 *303:X 0.000216562
3 *233:A *234:A 9.61943e-05
4 *253:A1 *234:A 0.000138535
5 *254:A *234:A 1.24368e-05
6 *254:B *234:A 0.000171224
7 *302:A *234:A 3.67279e-06
*RES
1 *303:X *234:A 32.5107 
*END

*D_NET *87 0.00288783
*CONN
*I *235:B_N I *D sky130_fd_sc_hd__or2b_1
*I *239:A_N I *D sky130_fd_sc_hd__and2b_1
*I *304:X O *D sky130_fd_sc_hd__clkbuf_1
*CAP
1 *235:B_N 0
2 *239:A_N 0.000325632
3 *304:X 0.000394092
4 *87:12 0.000719724
5 *235:A *239:A_N 0.000374065
6 *238:B1 *239:A_N 5.49489e-05
7 *238:C1 *239:A_N 1.0033e-05
8 *241:A2 *239:A_N 5.49489e-05
9 *252:A2 *239:A_N 4.42509e-05
10 *23:6 *239:A_N 0.000268042
11 *23:19 *239:A_N 0.000146208
12 *24:10 *239:A_N 0.000141941
13 *27:10 *239:A_N 6.47684e-05
14 *28:10 *239:A_N 2.6269e-05
15 *30:16 *239:A_N 6.49987e-05
16 *54:31 *239:A_N 5.45307e-05
17 *68:27 *239:A_N 0.000143375
*RES
1 *304:X *87:12 22.9429 
2 *87:12 *239:A_N 28.0857 
3 *87:12 *235:B_N 9.3 
*END

*D_NET *88 0.0105093
*CONN
*I *267:A I *D sky130_fd_sc_hd__nor3_1
*I *263:B1 I *D sky130_fd_sc_hd__a31o_1
*I *272:A I *D sky130_fd_sc_hd__nor3_1
*I *274:A I *D sky130_fd_sc_hd__nor2_1
*I *276:B1 I *D sky130_fd_sc_hd__a21oi_1
*I *260:B1 I *D sky130_fd_sc_hd__a21oi_1
*I *268:B1 I *D sky130_fd_sc_hd__a21oi_1
*I *259:B I *D sky130_fd_sc_hd__nor2_1
*I *305:X O *D sky130_fd_sc_hd__clkbuf_2
*CAP
1 *267:A 0
2 *263:B1 0.000672894
3 *272:A 1.40911e-05
4 *274:A 0
5 *276:B1 0.000190804
6 *260:B1 0
7 *268:B1 0.000102718
8 *259:B 0.000481485
9 *305:X 0
10 *88:87 0.00132056
11 *88:59 0.00096772
12 *88:49 0.00141049
13 *88:47 0.000142067
14 *88:36 0.000238719
15 *88:23 0.000625005
16 *88:4 0.000907121
17 *249:A *263:B1 0.000446558
18 *249:B_N *263:B1 6.14702e-06
19 *256:A1 *263:B1 0
20 *260:A2 *272:A 1.32386e-05
21 *260:A2 *88:47 7.97182e-05
22 *261:A2 *259:B 0.000201442
23 *261:B1 *259:B 0.000246525
24 *261:B1 *88:36 6.12751e-05
25 *261:B1 *88:47 7.20217e-06
26 *264:A *259:B 0.000119486
27 *265:A1 *263:B1 0.000146991
28 *265:A2 *88:47 2.14173e-05
29 *265:A3 *88:47 6.69271e-05
30 *269:B1 *276:B1 6.81081e-05
31 *272:B *263:B1 2.02339e-05
32 *276:A1 *276:B1 0.000344014
33 *276:A1 *88:59 0.000120985
34 *276:A2 *276:B1 5.49489e-05
35 *277:A1 *88:59 6.12751e-05
36 *279:CLK *88:23 1.93007e-05
37 *279:D *88:23 8.48062e-06
38 *283:D *272:A 2.83284e-06
39 *284:D *276:B1 3.08664e-05
40 *285:D *88:59 0
41 *286:A *259:B 0.000148342
42 *287:A *88:59 0.000180066
43 *291:A *276:B1 2.37871e-05
44 *291:A *88:59 5.65955e-05
45 *51:25 *88:59 0
46 *63:25 *263:B1 0.000308732
47 *63:57 *263:B1 4.75114e-05
48 *63:64 *263:B1 1.21258e-05
49 *67:31 *276:B1 5.16616e-05
50 *67:31 *88:59 0.000221178
51 *73:31 *259:B 0.000182683
52 *85:10 *276:B1 5.49489e-05
*RES
1 *305:X *88:4 9.3 
2 *88:4 *259:B 30.55 
3 *88:4 *88:23 9.85714 
4 *88:23 *268:B1 16.05 
5 *88:23 *88:36 6.26786 
6 *88:36 *260:B1 9.3 
7 *88:36 *88:47 3.44643 
8 *88:47 *88:49 4.5 
9 *88:49 *88:59 20.4643 
10 *88:59 *276:B1 23.8 
11 *88:59 *274:A 9.3 
12 *88:49 *88:87 4.24973 
13 *88:87 *272:A 17.4868 
14 *88:87 *263:B1 25.9847 
15 *88:47 *267:A 9.3 
*END
